7680
Lattice="9.5718 0.0 0.0 0.0 51.0496 0.0 0.0 0.0 51.0496" Properties=species:S:1:pos:R:3:segregation_energy:R:1 time=23650500772.656643 pbc="T T T"
W        0.00000000       0.00000000       0.00000000      -0.00000000
W        1.59530000       1.59530000       1.59530000      -0.00000000
X        0.79765000       0.79765000       0.79765000      -0.00000000
X        2.39295000       0.79765000       0.79765000      -0.00000000
X        0.79765000       2.39295000       0.79765000      -0.00000000
X        0.79765000       0.79765000       2.39295000      -0.00000000
X        2.39295000       2.39295000       0.79765000      -0.00000000
X        2.39295000       0.79765000       2.39295000      -0.00000000
X        0.79765000       2.39295000       2.39295000      -0.00000000
X        2.39295000       2.39295000       2.39295000      -0.00000000
Ta       0.00000000       0.00000000       3.19060000      -0.00000000
W        1.59530000       1.59530000       4.78590000      -0.00000000
X        0.79765000       0.79765000       3.98825000      -0.00000000
X        2.39295000       0.79765000       3.98825000      -0.00000000
X        0.79765000       2.39295000       3.98825000      -0.00000000
X        0.79765000       0.79765000       5.58355000      -0.00000000
X        2.39295000       2.39295000       3.98825000      -0.00000000
X        2.39295000       0.79765000       5.58355000      -0.00000000
X        0.79765000       2.39295000       5.58355000      -0.00000000
X        2.39295000       2.39295000       5.58355000      -0.00000000
Ta       0.00000000       0.00000000       6.38120000      -0.00000000
W        1.59530000       1.59530000       7.97650000      -0.00000000
X        0.79765000       0.79765000       7.17885000      -0.00000000
X        2.39295000       0.79765000       7.17885000      -0.00000000
X        0.79765000       2.39295000       7.17885000      -0.00000000
X        0.79765000       0.79765000       8.77415000      -0.00000000
X        2.39295000       2.39295000       7.17885000      -0.00000000
X        2.39295000       0.79765000       8.77415000      -0.00000000
X        0.79765000       2.39295000       8.77415000      -0.00000000
X        2.39295000       2.39295000       8.77415000      -0.00000000
W        0.00000000       0.00000000       9.57180000      -0.00000000
W        1.59530000       1.59530000      11.16710000      -0.00000003
X        0.79765000       0.79765000      10.36945000      -0.00000001
X        2.39295000       0.79765000      10.36945000      -0.00000001
X        0.79765000       2.39295000      10.36945000      -0.00000001
X        0.79765000       0.79765000      11.96475000      -0.00000020
X        2.39295000       2.39295000      10.36945000      -0.00000001
X        2.39295000       0.79765000      11.96475000      -0.00000020
X        0.79765000       2.39295000      11.96475000      -0.00000020
X        2.39295000       2.39295000      11.96475000      -0.00000020
W        0.00000000       0.00000000      12.76240000      -0.00000110
W        1.59530000       1.59530000      14.35770000      -0.00002324
X        0.79765000       0.79765000      13.56005000      -0.00000531
X        2.39295000       0.79765000      13.56005000      -0.00000531
X        0.79765000       2.39295000      13.56005000      -0.00000531
X        0.79765000       0.79765000      15.15535000      -0.00009187
X        2.39295000       2.39295000      13.56005000      -0.00000531
X        2.39295000       0.79765000      15.15535000      -0.00009187
X        0.79765000       2.39295000      15.15535000      -0.00009187
X        2.39295000       2.39295000      15.15535000      -0.00009187
W        0.00000000       0.00000000      15.95300000      -0.00032793
Ta       1.59530000       1.59530000      17.54830000      -0.00307912
X        0.79765000       0.79765000      16.75065000      -0.00105733
X        2.39295000       0.79765000      16.75065000      -0.00105733
X        0.79765000       2.39295000      16.75065000      -0.00105733
X        0.79765000       0.79765000      18.34595000      -0.00809897
X        2.39295000       2.39295000      16.75065000      -0.00105733
X        2.39295000       0.79765000      18.34595000      -0.00809897
X        0.79765000       2.39295000      18.34595000      -0.00809897
X        2.39295000       2.39295000      18.34595000      -0.00809897
W        0.00000000       0.00000000      19.14360000      -0.01924076
Ta       1.59530000       1.59530000      20.73890000      -0.08001555
X        0.79765000       0.79765000      19.94125000      -0.04128609
X        2.39295000       0.79765000      19.94125000      -0.04128609
X        0.79765000       2.39295000      19.94125000      -0.04128609
X        0.79765000       0.79765000      21.53655000      -0.14006646
X        2.39295000       2.39295000      19.94125000      -0.04128609
X        2.39295000       0.79765000      21.53655000      -0.14006646
X        0.79765000       2.39295000      21.53655000      -0.14006646
X        2.39295000       2.39295000      21.53655000      -0.14006646
W        0.00000000       0.00000000      22.33420000      -0.22145376
Ta       1.59530000       1.59530000      23.92950000      -0.40789490
X        0.79765000       0.79765000      23.13185000      -0.31624313
X        2.39295000       0.79765000      23.13185000      -0.31624313
X        0.79765000       2.39295000      23.13185000      -0.31624313
X        0.79765000       0.79765000      24.72715000      -0.47518702
X        2.39295000       2.39295000      23.13185000      -0.31624313
X        2.39295000       0.79765000      24.72715000      -0.47518702
X        0.79765000       2.39295000      24.72715000      -0.47518702
X        2.39295000       2.39295000      24.72715000      -0.47518702
W        0.00000000       0.00000000      25.52480000      -0.50000000
W        1.59530000       1.59530000      27.12010000      -0.40789490
X        0.79765000       0.79765000      26.32245000      -0.47518702
X        2.39295000       0.79765000      26.32245000      -0.47518702
X        0.79765000       2.39295000      26.32245000      -0.47518702
X        0.79765000       0.79765000      27.91775000      -0.31624313
X        2.39295000       2.39295000      26.32245000      -0.47518702
X        2.39295000       0.79765000      27.91775000      -0.31624313
X        0.79765000       2.39295000      27.91775000      -0.31624313
X        2.39295000       2.39295000      27.91775000      -0.31624313
W        0.00000000       0.00000000      28.71540000      -0.22145376
W        1.59530000       1.59530000      30.31070000      -0.08001555
X        0.79765000       0.79765000      29.51305000      -0.14006646
X        2.39295000       0.79765000      29.51305000      -0.14006646
X        0.79765000       2.39295000      29.51305000      -0.14006646
X        0.79765000       0.79765000      31.10835000      -0.04128609
X        2.39295000       2.39295000      29.51305000      -0.14006646
X        2.39295000       0.79765000      31.10835000      -0.04128609
X        0.79765000       2.39295000      31.10835000      -0.04128609
X        2.39295000       2.39295000      31.10835000      -0.04128609
Ta       0.00000000       0.00000000      31.90600000      -0.01924076
W        1.59530000       1.59530000      33.50130000      -0.00307912
X        0.79765000       0.79765000      32.70365000      -0.00809897
X        2.39295000       0.79765000      32.70365000      -0.00809897
X        0.79765000       2.39295000      32.70365000      -0.00809897
X        0.79765000       0.79765000      34.29895000      -0.00105733
X        2.39295000       2.39295000      32.70365000      -0.00809897
X        2.39295000       0.79765000      34.29895000      -0.00105733
X        0.79765000       2.39295000      34.29895000      -0.00105733
X        2.39295000       2.39295000      34.29895000      -0.00105733
W        0.00000000       0.00000000      35.09660000      -0.00032793
W        1.59530000       1.59530000      36.69190000      -0.00002324
X        0.79765000       0.79765000      35.89425000      -0.00009187
X        2.39295000       0.79765000      35.89425000      -0.00009187
X        0.79765000       2.39295000      35.89425000      -0.00009187
X        0.79765000       0.79765000      37.48955000      -0.00000531
X        2.39295000       2.39295000      35.89425000      -0.00009187
X        2.39295000       0.79765000      37.48955000      -0.00000531
X        0.79765000       2.39295000      37.48955000      -0.00000531
X        2.39295000       2.39295000      37.48955000      -0.00000531
W        0.00000000       0.00000000      38.28720000      -0.00000110
W        1.59530000       1.59530000      39.88250000      -0.00000003
X        0.79765000       0.79765000      39.08485000      -0.00000020
X        2.39295000       0.79765000      39.08485000      -0.00000020
X        0.79765000       2.39295000      39.08485000      -0.00000020
X        0.79765000       0.79765000      40.68015000      -0.00000001
X        2.39295000       2.39295000      39.08485000      -0.00000020
X        2.39295000       0.79765000      40.68015000      -0.00000001
X        0.79765000       2.39295000      40.68015000      -0.00000001
X        2.39295000       2.39295000      40.68015000      -0.00000001
W        0.00000000       0.00000000      41.47780000      -0.00000000
W        1.59530000       1.59530000      43.07310000      -0.00000000
X        0.79765000       0.79765000      42.27545000      -0.00000000
X        2.39295000       0.79765000      42.27545000      -0.00000000
X        0.79765000       2.39295000      42.27545000      -0.00000000
X        0.79765000       0.79765000      43.87075000      -0.00000000
X        2.39295000       2.39295000      42.27545000      -0.00000000
X        2.39295000       0.79765000      43.87075000      -0.00000000
X        0.79765000       2.39295000      43.87075000      -0.00000000
X        2.39295000       2.39295000      43.87075000      -0.00000000
W        0.00000000       0.00000000      44.66840000      -0.00000000
W        1.59530000       1.59530000      46.26370000      -0.00000000
X        0.79765000       0.79765000      45.46605000      -0.00000000
X        2.39295000       0.79765000      45.46605000      -0.00000000
X        0.79765000       2.39295000      45.46605000      -0.00000000
X        0.79765000       0.79765000      47.06135000      -0.00000000
X        2.39295000       2.39295000      45.46605000      -0.00000000
X        2.39295000       0.79765000      47.06135000      -0.00000000
X        0.79765000       2.39295000      47.06135000      -0.00000000
X        2.39295000       2.39295000      47.06135000      -0.00000000
W        0.00000000       0.00000000      47.85900000      -0.00000000
W        1.59530000       1.59530000      49.45430000      -0.00000000
X        0.79765000       0.79765000      48.65665000      -0.00000000
X        2.39295000       0.79765000      48.65665000      -0.00000000
X        0.79765000       2.39295000      48.65665000      -0.00000000
X        0.79765000       0.79765000      50.25195000      -0.00000000
X        2.39295000       2.39295000      48.65665000      -0.00000000
X        2.39295000       0.79765000      50.25195000      -0.00000000
X        0.79765000       2.39295000      50.25195000      -0.00000000
X        2.39295000       2.39295000      50.25195000      -0.00000000
Ta       0.00000000       3.19060000       0.00000000      -0.00000000
W        1.59530000       4.78590000       1.59530000      -0.00000000
X        0.79765000       3.98825000       0.79765000      -0.00000000
X        2.39295000       3.98825000       0.79765000      -0.00000000
X        0.79765000       5.58355000       0.79765000      -0.00000000
X        0.79765000       3.98825000       2.39295000      -0.00000000
X        2.39295000       5.58355000       0.79765000      -0.00000000
X        2.39295000       3.98825000       2.39295000      -0.00000000
X        0.79765000       5.58355000       2.39295000      -0.00000000
X        2.39295000       5.58355000       2.39295000      -0.00000000
W        0.00000000       3.19060000       3.19060000      -0.00000000
W        1.59530000       4.78590000       4.78590000      -0.00000000
X        0.79765000       3.98825000       3.98825000      -0.00000000
X        2.39295000       3.98825000       3.98825000      -0.00000000
X        0.79765000       5.58355000       3.98825000      -0.00000000
X        0.79765000       3.98825000       5.58355000      -0.00000000
X        2.39295000       5.58355000       3.98825000      -0.00000000
X        2.39295000       3.98825000       5.58355000      -0.00000000
X        0.79765000       5.58355000       5.58355000      -0.00000000
X        2.39295000       5.58355000       5.58355000      -0.00000000
W        0.00000000       3.19060000       6.38120000      -0.00000000
W        1.59530000       4.78590000       7.97650000      -0.00000000
X        0.79765000       3.98825000       7.17885000      -0.00000000
X        2.39295000       3.98825000       7.17885000      -0.00000000
X        0.79765000       5.58355000       7.17885000      -0.00000000
X        0.79765000       3.98825000       8.77415000      -0.00000000
X        2.39295000       5.58355000       7.17885000      -0.00000000
X        2.39295000       3.98825000       8.77415000      -0.00000000
X        0.79765000       5.58355000       8.77415000      -0.00000000
X        2.39295000       5.58355000       8.77415000      -0.00000000
W        0.00000000       3.19060000       9.57180000      -0.00000000
W        1.59530000       4.78590000      11.16710000      -0.00000003
X        0.79765000       3.98825000      10.36945000      -0.00000001
X        2.39295000       3.98825000      10.36945000      -0.00000001
X        0.79765000       5.58355000      10.36945000      -0.00000001
X        0.79765000       3.98825000      11.96475000      -0.00000020
X        2.39295000       5.58355000      10.36945000      -0.00000001
X        2.39295000       3.98825000      11.96475000      -0.00000020
X        0.79765000       5.58355000      11.96475000      -0.00000020
X        2.39295000       5.58355000      11.96475000      -0.00000020
W        0.00000000       3.19060000      12.76240000      -0.00000110
W        1.59530000       4.78590000      14.35770000      -0.00002324
X        0.79765000       3.98825000      13.56005000      -0.00000531
X        2.39295000       3.98825000      13.56005000      -0.00000531
X        0.79765000       5.58355000      13.56005000      -0.00000531
X        0.79765000       3.98825000      15.15535000      -0.00009187
X        2.39295000       5.58355000      13.56005000      -0.00000531
X        2.39295000       3.98825000      15.15535000      -0.00009187
X        0.79765000       5.58355000      15.15535000      -0.00009187
X        2.39295000       5.58355000      15.15535000      -0.00009187
W        0.00000000       3.19060000      15.95300000      -0.00032793
W        1.59530000       4.78590000      17.54830000      -0.00307912
X        0.79765000       3.98825000      16.75065000      -0.00105733
X        2.39295000       3.98825000      16.75065000      -0.00105733
X        0.79765000       5.58355000      16.75065000      -0.00105733
X        0.79765000       3.98825000      18.34595000      -0.00809897
X        2.39295000       5.58355000      16.75065000      -0.00105733
X        2.39295000       3.98825000      18.34595000      -0.00809897
X        0.79765000       5.58355000      18.34595000      -0.00809897
X        2.39295000       5.58355000      18.34595000      -0.00809897
W        0.00000000       3.19060000      19.14360000      -0.01924076
W        1.59530000       4.78590000      20.73890000      -0.08001555
X        0.79765000       3.98825000      19.94125000      -0.04128609
X        2.39295000       3.98825000      19.94125000      -0.04128609
X        0.79765000       5.58355000      19.94125000      -0.04128609
X        0.79765000       3.98825000      21.53655000      -0.14006646
X        2.39295000       5.58355000      19.94125000      -0.04128609
X        2.39295000       3.98825000      21.53655000      -0.14006646
X        0.79765000       5.58355000      21.53655000      -0.14006646
X        2.39295000       5.58355000      21.53655000      -0.14006646
W        0.00000000       3.19060000      22.33420000      -0.22145376
W        1.59530000       4.78590000      23.92950000      -0.40789490
X        0.79765000       3.98825000      23.13185000      -0.31624313
X        2.39295000       3.98825000      23.13185000      -0.31624313
X        0.79765000       5.58355000      23.13185000      -0.31624313
X        0.79765000       3.98825000      24.72715000      -0.47518702
X        2.39295000       5.58355000      23.13185000      -0.31624313
X        2.39295000       3.98825000      24.72715000      -0.47518702
X        0.79765000       5.58355000      24.72715000      -0.47518702
X        2.39295000       5.58355000      24.72715000      -0.47518702
Ta       0.00000000       3.19060000      25.52480000      -0.50000000
W        1.59530000       4.78590000      27.12010000      -0.40789490
X        0.79765000       3.98825000      26.32245000      -0.47518702
X        2.39295000       3.98825000      26.32245000      -0.47518702
X        0.79765000       5.58355000      26.32245000      -0.47518702
X        0.79765000       3.98825000      27.91775000      -0.31624313
X        2.39295000       5.58355000      26.32245000      -0.47518702
X        2.39295000       3.98825000      27.91775000      -0.31624313
X        0.79765000       5.58355000      27.91775000      -0.31624313
X        2.39295000       5.58355000      27.91775000      -0.31624313
W        0.00000000       3.19060000      28.71540000      -0.22145376
W        1.59530000       4.78590000      30.31070000      -0.08001555
X        0.79765000       3.98825000      29.51305000      -0.14006646
X        2.39295000       3.98825000      29.51305000      -0.14006646
X        0.79765000       5.58355000      29.51305000      -0.14006646
X        0.79765000       3.98825000      31.10835000      -0.04128609
X        2.39295000       5.58355000      29.51305000      -0.14006646
X        2.39295000       3.98825000      31.10835000      -0.04128609
X        0.79765000       5.58355000      31.10835000      -0.04128609
X        2.39295000       5.58355000      31.10835000      -0.04128609
W        0.00000000       3.19060000      31.90600000      -0.01924076
Ta       1.59530000       4.78590000      33.50130000      -0.00307912
X        0.79765000       3.98825000      32.70365000      -0.00809897
X        2.39295000       3.98825000      32.70365000      -0.00809897
X        0.79765000       5.58355000      32.70365000      -0.00809897
X        0.79765000       3.98825000      34.29895000      -0.00105733
X        2.39295000       5.58355000      32.70365000      -0.00809897
X        2.39295000       3.98825000      34.29895000      -0.00105733
X        0.79765000       5.58355000      34.29895000      -0.00105733
X        2.39295000       5.58355000      34.29895000      -0.00105733
W        0.00000000       3.19060000      35.09660000      -0.00032793
Ta       1.59530000       4.78590000      36.69190000      -0.00002324
X        0.79765000       3.98825000      35.89425000      -0.00009187
X        2.39295000       3.98825000      35.89425000      -0.00009187
X        0.79765000       5.58355000      35.89425000      -0.00009187
X        0.79765000       3.98825000      37.48955000      -0.00000531
X        2.39295000       5.58355000      35.89425000      -0.00009187
X        2.39295000       3.98825000      37.48955000      -0.00000531
X        0.79765000       5.58355000      37.48955000      -0.00000531
X        2.39295000       5.58355000      37.48955000      -0.00000531
W        0.00000000       3.19060000      38.28720000      -0.00000110
W        1.59530000       4.78590000      39.88250000      -0.00000003
X        0.79765000       3.98825000      39.08485000      -0.00000020
X        2.39295000       3.98825000      39.08485000      -0.00000020
X        0.79765000       5.58355000      39.08485000      -0.00000020
X        0.79765000       3.98825000      40.68015000      -0.00000001
X        2.39295000       5.58355000      39.08485000      -0.00000020
X        2.39295000       3.98825000      40.68015000      -0.00000001
X        0.79765000       5.58355000      40.68015000      -0.00000001
X        2.39295000       5.58355000      40.68015000      -0.00000001
W        0.00000000       3.19060000      41.47780000      -0.00000000
Ta       1.59530000       4.78590000      43.07310000      -0.00000000
X        0.79765000       3.98825000      42.27545000      -0.00000000
X        2.39295000       3.98825000      42.27545000      -0.00000000
X        0.79765000       5.58355000      42.27545000      -0.00000000
X        0.79765000       3.98825000      43.87075000      -0.00000000
X        2.39295000       5.58355000      42.27545000      -0.00000000
X        2.39295000       3.98825000      43.87075000      -0.00000000
X        0.79765000       5.58355000      43.87075000      -0.00000000
X        2.39295000       5.58355000      43.87075000      -0.00000000
W        0.00000000       3.19060000      44.66840000      -0.00000000
Ta       1.59530000       4.78590000      46.26370000      -0.00000000
X        0.79765000       3.98825000      45.46605000      -0.00000000
X        2.39295000       3.98825000      45.46605000      -0.00000000
X        0.79765000       5.58355000      45.46605000      -0.00000000
X        0.79765000       3.98825000      47.06135000      -0.00000000
X        2.39295000       5.58355000      45.46605000      -0.00000000
X        2.39295000       3.98825000      47.06135000      -0.00000000
X        0.79765000       5.58355000      47.06135000      -0.00000000
X        2.39295000       5.58355000      47.06135000      -0.00000000
Ta       0.00000000       3.19060000      47.85900000      -0.00000000
W        1.59530000       4.78590000      49.45430000      -0.00000000
X        0.79765000       3.98825000      48.65665000      -0.00000000
X        2.39295000       3.98825000      48.65665000      -0.00000000
X        0.79765000       5.58355000      48.65665000      -0.00000000
X        0.79765000       3.98825000      50.25195000      -0.00000000
X        2.39295000       5.58355000      48.65665000      -0.00000000
X        2.39295000       3.98825000      50.25195000      -0.00000000
X        0.79765000       5.58355000      50.25195000      -0.00000000
X        2.39295000       5.58355000      50.25195000      -0.00000000
W        0.00000000       6.38120000       0.00000000      -0.00000000
W        1.59530000       7.97650000       1.59530000      -0.00000000
X        0.79765000       7.17885000       0.79765000      -0.00000000
X        2.39295000       7.17885000       0.79765000      -0.00000000
X        0.79765000       8.77415000       0.79765000      -0.00000000
X        0.79765000       7.17885000       2.39295000      -0.00000000
X        2.39295000       8.77415000       0.79765000      -0.00000000
X        2.39295000       7.17885000       2.39295000      -0.00000000
X        0.79765000       8.77415000       2.39295000      -0.00000000
X        2.39295000       8.77415000       2.39295000      -0.00000000
Ta       0.00000000       6.38120000       3.19060000      -0.00000000
W        1.59530000       7.97650000       4.78590000      -0.00000000
X        0.79765000       7.17885000       3.98825000      -0.00000000
X        2.39295000       7.17885000       3.98825000      -0.00000000
X        0.79765000       8.77415000       3.98825000      -0.00000000
X        0.79765000       7.17885000       5.58355000      -0.00000000
X        2.39295000       8.77415000       3.98825000      -0.00000000
X        2.39295000       7.17885000       5.58355000      -0.00000000
X        0.79765000       8.77415000       5.58355000      -0.00000000
X        2.39295000       8.77415000       5.58355000      -0.00000000
W        0.00000000       6.38120000       6.38120000      -0.00000000
Ta       1.59530000       7.97650000       7.97650000      -0.00000000
X        0.79765000       7.17885000       7.17885000      -0.00000000
X        2.39295000       7.17885000       7.17885000      -0.00000000
X        0.79765000       8.77415000       7.17885000      -0.00000000
X        0.79765000       7.17885000       8.77415000      -0.00000000
X        2.39295000       8.77415000       7.17885000      -0.00000000
X        2.39295000       7.17885000       8.77415000      -0.00000000
X        0.79765000       8.77415000       8.77415000      -0.00000000
X        2.39295000       8.77415000       8.77415000      -0.00000000
W        0.00000000       6.38120000       9.57180000      -0.00000000
W        1.59530000       7.97650000      11.16710000      -0.00000003
X        0.79765000       7.17885000      10.36945000      -0.00000001
X        2.39295000       7.17885000      10.36945000      -0.00000001
X        0.79765000       8.77415000      10.36945000      -0.00000001
X        0.79765000       7.17885000      11.96475000      -0.00000020
X        2.39295000       8.77415000      10.36945000      -0.00000001
X        2.39295000       7.17885000      11.96475000      -0.00000020
X        0.79765000       8.77415000      11.96475000      -0.00000020
X        2.39295000       8.77415000      11.96475000      -0.00000020
W        0.00000000       6.38120000      12.76240000      -0.00000110
W        1.59530000       7.97650000      14.35770000      -0.00002324
X        0.79765000       7.17885000      13.56005000      -0.00000531
X        2.39295000       7.17885000      13.56005000      -0.00000531
X        0.79765000       8.77415000      13.56005000      -0.00000531
X        0.79765000       7.17885000      15.15535000      -0.00009187
X        2.39295000       8.77415000      13.56005000      -0.00000531
X        2.39295000       7.17885000      15.15535000      -0.00009187
X        0.79765000       8.77415000      15.15535000      -0.00009187
X        2.39295000       8.77415000      15.15535000      -0.00009187
W        0.00000000       6.38120000      15.95300000      -0.00032793
W        1.59530000       7.97650000      17.54830000      -0.00307912
X        0.79765000       7.17885000      16.75065000      -0.00105733
X        2.39295000       7.17885000      16.75065000      -0.00105733
X        0.79765000       8.77415000      16.75065000      -0.00105733
X        0.79765000       7.17885000      18.34595000      -0.00809897
X        2.39295000       8.77415000      16.75065000      -0.00105733
X        2.39295000       7.17885000      18.34595000      -0.00809897
X        0.79765000       8.77415000      18.34595000      -0.00809897
X        2.39295000       8.77415000      18.34595000      -0.00809897
W        0.00000000       6.38120000      19.14360000      -0.01924076
W        1.59530000       7.97650000      20.73890000      -0.08001555
X        0.79765000       7.17885000      19.94125000      -0.04128609
X        2.39295000       7.17885000      19.94125000      -0.04128609
X        0.79765000       8.77415000      19.94125000      -0.04128609
X        0.79765000       7.17885000      21.53655000      -0.14006646
X        2.39295000       8.77415000      19.94125000      -0.04128609
X        2.39295000       7.17885000      21.53655000      -0.14006646
X        0.79765000       8.77415000      21.53655000      -0.14006646
X        2.39295000       8.77415000      21.53655000      -0.14006646
W        0.00000000       6.38120000      22.33420000      -0.22145376
W        1.59530000       7.97650000      23.92950000      -0.40789490
X        0.79765000       7.17885000      23.13185000      -0.31624313
X        2.39295000       7.17885000      23.13185000      -0.31624313
X        0.79765000       8.77415000      23.13185000      -0.31624313
X        0.79765000       7.17885000      24.72715000      -0.47518702
X        2.39295000       8.77415000      23.13185000      -0.31624313
X        2.39295000       7.17885000      24.72715000      -0.47518702
X        0.79765000       8.77415000      24.72715000      -0.47518702
X        2.39295000       8.77415000      24.72715000      -0.47518702
W        0.00000000       6.38120000      25.52480000      -0.50000000
W        1.59530000       7.97650000      27.12010000      -0.40789490
X        0.79765000       7.17885000      26.32245000      -0.47518702
X        2.39295000       7.17885000      26.32245000      -0.47518702
X        0.79765000       8.77415000      26.32245000      -0.47518702
X        0.79765000       7.17885000      27.91775000      -0.31624313
X        2.39295000       8.77415000      26.32245000      -0.47518702
X        2.39295000       7.17885000      27.91775000      -0.31624313
X        0.79765000       8.77415000      27.91775000      -0.31624313
X        2.39295000       8.77415000      27.91775000      -0.31624313
W        0.00000000       6.38120000      28.71540000      -0.22145376
W        1.59530000       7.97650000      30.31070000      -0.08001555
X        0.79765000       7.17885000      29.51305000      -0.14006646
X        2.39295000       7.17885000      29.51305000      -0.14006646
X        0.79765000       8.77415000      29.51305000      -0.14006646
X        0.79765000       7.17885000      31.10835000      -0.04128609
X        2.39295000       8.77415000      29.51305000      -0.14006646
X        2.39295000       7.17885000      31.10835000      -0.04128609
X        0.79765000       8.77415000      31.10835000      -0.04128609
X        2.39295000       8.77415000      31.10835000      -0.04128609
W        0.00000000       6.38120000      31.90600000      -0.01924076
W        1.59530000       7.97650000      33.50130000      -0.00307912
X        0.79765000       7.17885000      32.70365000      -0.00809897
X        2.39295000       7.17885000      32.70365000      -0.00809897
X        0.79765000       8.77415000      32.70365000      -0.00809897
X        0.79765000       7.17885000      34.29895000      -0.00105733
X        2.39295000       8.77415000      32.70365000      -0.00809897
X        2.39295000       7.17885000      34.29895000      -0.00105733
X        0.79765000       8.77415000      34.29895000      -0.00105733
X        2.39295000       8.77415000      34.29895000      -0.00105733
W        0.00000000       6.38120000      35.09660000      -0.00032793
W        1.59530000       7.97650000      36.69190000      -0.00002324
X        0.79765000       7.17885000      35.89425000      -0.00009187
X        2.39295000       7.17885000      35.89425000      -0.00009187
X        0.79765000       8.77415000      35.89425000      -0.00009187
X        0.79765000       7.17885000      37.48955000      -0.00000531
X        2.39295000       8.77415000      35.89425000      -0.00009187
X        2.39295000       7.17885000      37.48955000      -0.00000531
X        0.79765000       8.77415000      37.48955000      -0.00000531
X        2.39295000       8.77415000      37.48955000      -0.00000531
Ta       0.00000000       6.38120000      38.28720000      -0.00000110
W        1.59530000       7.97650000      39.88250000      -0.00000003
X        0.79765000       7.17885000      39.08485000      -0.00000020
X        2.39295000       7.17885000      39.08485000      -0.00000020
X        0.79765000       8.77415000      39.08485000      -0.00000020
X        0.79765000       7.17885000      40.68015000      -0.00000001
X        2.39295000       8.77415000      39.08485000      -0.00000020
X        2.39295000       7.17885000      40.68015000      -0.00000001
X        0.79765000       8.77415000      40.68015000      -0.00000001
X        2.39295000       8.77415000      40.68015000      -0.00000001
W        0.00000000       6.38120000      41.47780000      -0.00000000
W        1.59530000       7.97650000      43.07310000      -0.00000000
X        0.79765000       7.17885000      42.27545000      -0.00000000
X        2.39295000       7.17885000      42.27545000      -0.00000000
X        0.79765000       8.77415000      42.27545000      -0.00000000
X        0.79765000       7.17885000      43.87075000      -0.00000000
X        2.39295000       8.77415000      42.27545000      -0.00000000
X        2.39295000       7.17885000      43.87075000      -0.00000000
X        0.79765000       8.77415000      43.87075000      -0.00000000
X        2.39295000       8.77415000      43.87075000      -0.00000000
Ta       0.00000000       6.38120000      44.66840000      -0.00000000
W        1.59530000       7.97650000      46.26370000      -0.00000000
X        0.79765000       7.17885000      45.46605000      -0.00000000
X        2.39295000       7.17885000      45.46605000      -0.00000000
X        0.79765000       8.77415000      45.46605000      -0.00000000
X        0.79765000       7.17885000      47.06135000      -0.00000000
X        2.39295000       8.77415000      45.46605000      -0.00000000
X        2.39295000       7.17885000      47.06135000      -0.00000000
X        0.79765000       8.77415000      47.06135000      -0.00000000
X        2.39295000       8.77415000      47.06135000      -0.00000000
W        0.00000000       6.38120000      47.85900000      -0.00000000
W        1.59530000       7.97650000      49.45430000      -0.00000000
X        0.79765000       7.17885000      48.65665000      -0.00000000
X        2.39295000       7.17885000      48.65665000      -0.00000000
X        0.79765000       8.77415000      48.65665000      -0.00000000
X        0.79765000       7.17885000      50.25195000      -0.00000000
X        2.39295000       8.77415000      48.65665000      -0.00000000
X        2.39295000       7.17885000      50.25195000      -0.00000000
X        0.79765000       8.77415000      50.25195000      -0.00000000
X        2.39295000       8.77415000      50.25195000      -0.00000000
Ta       0.00000000       9.57180000       0.00000000      -0.00000000
W        1.59530000      11.16710000       1.59530000      -0.00000000
X        0.79765000      10.36945000       0.79765000      -0.00000000
X        2.39295000      10.36945000       0.79765000      -0.00000000
X        0.79765000      11.96475000       0.79765000      -0.00000000
X        0.79765000      10.36945000       2.39295000      -0.00000000
X        2.39295000      11.96475000       0.79765000      -0.00000000
X        2.39295000      10.36945000       2.39295000      -0.00000000
X        0.79765000      11.96475000       2.39295000      -0.00000000
X        2.39295000      11.96475000       2.39295000      -0.00000000
W        0.00000000       9.57180000       3.19060000      -0.00000000
W        1.59530000      11.16710000       4.78590000      -0.00000000
X        0.79765000      10.36945000       3.98825000      -0.00000000
X        2.39295000      10.36945000       3.98825000      -0.00000000
X        0.79765000      11.96475000       3.98825000      -0.00000000
X        0.79765000      10.36945000       5.58355000      -0.00000000
X        2.39295000      11.96475000       3.98825000      -0.00000000
X        2.39295000      10.36945000       5.58355000      -0.00000000
X        0.79765000      11.96475000       5.58355000      -0.00000000
X        2.39295000      11.96475000       5.58355000      -0.00000000
W        0.00000000       9.57180000       6.38120000      -0.00000000
W        1.59530000      11.16710000       7.97650000      -0.00000000
X        0.79765000      10.36945000       7.17885000      -0.00000000
X        2.39295000      10.36945000       7.17885000      -0.00000000
X        0.79765000      11.96475000       7.17885000      -0.00000000
X        0.79765000      10.36945000       8.77415000      -0.00000000
X        2.39295000      11.96475000       7.17885000      -0.00000000
X        2.39295000      10.36945000       8.77415000      -0.00000000
X        0.79765000      11.96475000       8.77415000      -0.00000000
X        2.39295000      11.96475000       8.77415000      -0.00000000
W        0.00000000       9.57180000       9.57180000      -0.00000000
W        1.59530000      11.16710000      11.16710000      -0.00000003
X        0.79765000      10.36945000      10.36945000      -0.00000001
X        2.39295000      10.36945000      10.36945000      -0.00000001
X        0.79765000      11.96475000      10.36945000      -0.00000001
X        0.79765000      10.36945000      11.96475000      -0.00000020
X        2.39295000      11.96475000      10.36945000      -0.00000001
X        2.39295000      10.36945000      11.96475000      -0.00000020
X        0.79765000      11.96475000      11.96475000      -0.00000020
X        2.39295000      11.96475000      11.96475000      -0.00000020
W        0.00000000       9.57180000      12.76240000      -0.00000110
W        1.59530000      11.16710000      14.35770000      -0.00002324
X        0.79765000      10.36945000      13.56005000      -0.00000531
X        2.39295000      10.36945000      13.56005000      -0.00000531
X        0.79765000      11.96475000      13.56005000      -0.00000531
X        0.79765000      10.36945000      15.15535000      -0.00009187
X        2.39295000      11.96475000      13.56005000      -0.00000531
X        2.39295000      10.36945000      15.15535000      -0.00009187
X        0.79765000      11.96475000      15.15535000      -0.00009187
X        2.39295000      11.96475000      15.15535000      -0.00009187
W        0.00000000       9.57180000      15.95300000      -0.00032793
W        1.59530000      11.16710000      17.54830000      -0.00307912
X        0.79765000      10.36945000      16.75065000      -0.00105733
X        2.39295000      10.36945000      16.75065000      -0.00105733
X        0.79765000      11.96475000      16.75065000      -0.00105733
X        0.79765000      10.36945000      18.34595000      -0.00809897
X        2.39295000      11.96475000      16.75065000      -0.00105733
X        2.39295000      10.36945000      18.34595000      -0.00809897
X        0.79765000      11.96475000      18.34595000      -0.00809897
X        2.39295000      11.96475000      18.34595000      -0.00809897
Ta       0.00000000       9.57180000      19.14360000      -0.01924076
W        1.59530000      11.16710000      20.73890000      -0.08001555
X        0.79765000      10.36945000      19.94125000      -0.04128609
X        2.39295000      10.36945000      19.94125000      -0.04128609
X        0.79765000      11.96475000      19.94125000      -0.04128609
X        0.79765000      10.36945000      21.53655000      -0.14006646
X        2.39295000      11.96475000      19.94125000      -0.04128609
X        2.39295000      10.36945000      21.53655000      -0.14006646
X        0.79765000      11.96475000      21.53655000      -0.14006646
X        2.39295000      11.96475000      21.53655000      -0.14006646
W        0.00000000       9.57180000      22.33420000      -0.22145376
Ta       1.59530000      11.16710000      23.92950000      -0.40789490
X        0.79765000      10.36945000      23.13185000      -0.31624313
X        2.39295000      10.36945000      23.13185000      -0.31624313
X        0.79765000      11.96475000      23.13185000      -0.31624313
X        0.79765000      10.36945000      24.72715000      -0.47518702
X        2.39295000      11.96475000      23.13185000      -0.31624313
X        2.39295000      10.36945000      24.72715000      -0.47518702
X        0.79765000      11.96475000      24.72715000      -0.47518702
X        2.39295000      11.96475000      24.72715000      -0.47518702
W        0.00000000       9.57180000      25.52480000      -0.50000000
Ta       1.59530000      11.16710000      27.12010000      -0.40789490
X        0.79765000      10.36945000      26.32245000      -0.47518702
X        2.39295000      10.36945000      26.32245000      -0.47518702
X        0.79765000      11.96475000      26.32245000      -0.47518702
X        0.79765000      10.36945000      27.91775000      -0.31624313
X        2.39295000      11.96475000      26.32245000      -0.47518702
X        2.39295000      10.36945000      27.91775000      -0.31624313
X        0.79765000      11.96475000      27.91775000      -0.31624313
X        2.39295000      11.96475000      27.91775000      -0.31624313
W        0.00000000       9.57180000      28.71540000      -0.22145376
W        1.59530000      11.16710000      30.31070000      -0.08001555
X        0.79765000      10.36945000      29.51305000      -0.14006646
X        2.39295000      10.36945000      29.51305000      -0.14006646
X        0.79765000      11.96475000      29.51305000      -0.14006646
X        0.79765000      10.36945000      31.10835000      -0.04128609
X        2.39295000      11.96475000      29.51305000      -0.14006646
X        2.39295000      10.36945000      31.10835000      -0.04128609
X        0.79765000      11.96475000      31.10835000      -0.04128609
X        2.39295000      11.96475000      31.10835000      -0.04128609
W        0.00000000       9.57180000      31.90600000      -0.01924076
Ta       1.59530000      11.16710000      33.50130000      -0.00307912
X        0.79765000      10.36945000      32.70365000      -0.00809897
X        2.39295000      10.36945000      32.70365000      -0.00809897
X        0.79765000      11.96475000      32.70365000      -0.00809897
X        0.79765000      10.36945000      34.29895000      -0.00105733
X        2.39295000      11.96475000      32.70365000      -0.00809897
X        2.39295000      10.36945000      34.29895000      -0.00105733
X        0.79765000      11.96475000      34.29895000      -0.00105733
X        2.39295000      11.96475000      34.29895000      -0.00105733
W        0.00000000       9.57180000      35.09660000      -0.00032793
Ta       1.59530000      11.16710000      36.69190000      -0.00002324
X        0.79765000      10.36945000      35.89425000      -0.00009187
X        2.39295000      10.36945000      35.89425000      -0.00009187
X        0.79765000      11.96475000      35.89425000      -0.00009187
X        0.79765000      10.36945000      37.48955000      -0.00000531
X        2.39295000      11.96475000      35.89425000      -0.00009187
X        2.39295000      10.36945000      37.48955000      -0.00000531
X        0.79765000      11.96475000      37.48955000      -0.00000531
X        2.39295000      11.96475000      37.48955000      -0.00000531
W        0.00000000       9.57180000      38.28720000      -0.00000110
W        1.59530000      11.16710000      39.88250000      -0.00000003
X        0.79765000      10.36945000      39.08485000      -0.00000020
X        2.39295000      10.36945000      39.08485000      -0.00000020
X        0.79765000      11.96475000      39.08485000      -0.00000020
X        0.79765000      10.36945000      40.68015000      -0.00000001
X        2.39295000      11.96475000      39.08485000      -0.00000020
X        2.39295000      10.36945000      40.68015000      -0.00000001
X        0.79765000      11.96475000      40.68015000      -0.00000001
X        2.39295000      11.96475000      40.68015000      -0.00000001
W        0.00000000       9.57180000      41.47780000      -0.00000000
W        1.59530000      11.16710000      43.07310000      -0.00000000
X        0.79765000      10.36945000      42.27545000      -0.00000000
X        2.39295000      10.36945000      42.27545000      -0.00000000
X        0.79765000      11.96475000      42.27545000      -0.00000000
X        0.79765000      10.36945000      43.87075000      -0.00000000
X        2.39295000      11.96475000      42.27545000      -0.00000000
X        2.39295000      10.36945000      43.87075000      -0.00000000
X        0.79765000      11.96475000      43.87075000      -0.00000000
X        2.39295000      11.96475000      43.87075000      -0.00000000
W        0.00000000       9.57180000      44.66840000      -0.00000000
W        1.59530000      11.16710000      46.26370000      -0.00000000
X        0.79765000      10.36945000      45.46605000      -0.00000000
X        2.39295000      10.36945000      45.46605000      -0.00000000
X        0.79765000      11.96475000      45.46605000      -0.00000000
X        0.79765000      10.36945000      47.06135000      -0.00000000
X        2.39295000      11.96475000      45.46605000      -0.00000000
X        2.39295000      10.36945000      47.06135000      -0.00000000
X        0.79765000      11.96475000      47.06135000      -0.00000000
X        2.39295000      11.96475000      47.06135000      -0.00000000
W        0.00000000       9.57180000      47.85900000      -0.00000000
W        1.59530000      11.16710000      49.45430000      -0.00000000
X        0.79765000      10.36945000      48.65665000      -0.00000000
X        2.39295000      10.36945000      48.65665000      -0.00000000
X        0.79765000      11.96475000      48.65665000      -0.00000000
X        0.79765000      10.36945000      50.25195000      -0.00000000
X        2.39295000      11.96475000      48.65665000      -0.00000000
X        2.39295000      10.36945000      50.25195000      -0.00000000
X        0.79765000      11.96475000      50.25195000      -0.00000000
X        2.39295000      11.96475000      50.25195000      -0.00000000
Ta       0.00000000      12.76240000       0.00000000      -0.00000000
W        1.59530000      14.35770000       1.59530000      -0.00000000
X        0.79765000      13.56005000       0.79765000      -0.00000000
X        2.39295000      13.56005000       0.79765000      -0.00000000
X        0.79765000      15.15535000       0.79765000      -0.00000000
X        0.79765000      13.56005000       2.39295000      -0.00000000
X        2.39295000      15.15535000       0.79765000      -0.00000000
X        2.39295000      13.56005000       2.39295000      -0.00000000
X        0.79765000      15.15535000       2.39295000      -0.00000000
X        2.39295000      15.15535000       2.39295000      -0.00000000
W        0.00000000      12.76240000       3.19060000      -0.00000000
W        1.59530000      14.35770000       4.78590000      -0.00000000
X        0.79765000      13.56005000       3.98825000      -0.00000000
X        2.39295000      13.56005000       3.98825000      -0.00000000
X        0.79765000      15.15535000       3.98825000      -0.00000000
X        0.79765000      13.56005000       5.58355000      -0.00000000
X        2.39295000      15.15535000       3.98825000      -0.00000000
X        2.39295000      13.56005000       5.58355000      -0.00000000
X        0.79765000      15.15535000       5.58355000      -0.00000000
X        2.39295000      15.15535000       5.58355000      -0.00000000
W        0.00000000      12.76240000       6.38120000      -0.00000000
W        1.59530000      14.35770000       7.97650000      -0.00000000
X        0.79765000      13.56005000       7.17885000      -0.00000000
X        2.39295000      13.56005000       7.17885000      -0.00000000
X        0.79765000      15.15535000       7.17885000      -0.00000000
X        0.79765000      13.56005000       8.77415000      -0.00000000
X        2.39295000      15.15535000       7.17885000      -0.00000000
X        2.39295000      13.56005000       8.77415000      -0.00000000
X        0.79765000      15.15535000       8.77415000      -0.00000000
X        2.39295000      15.15535000       8.77415000      -0.00000000
W        0.00000000      12.76240000       9.57180000      -0.00000000
W        1.59530000      14.35770000      11.16710000      -0.00000003
X        0.79765000      13.56005000      10.36945000      -0.00000001
X        2.39295000      13.56005000      10.36945000      -0.00000001
X        0.79765000      15.15535000      10.36945000      -0.00000001
X        0.79765000      13.56005000      11.96475000      -0.00000020
X        2.39295000      15.15535000      10.36945000      -0.00000001
X        2.39295000      13.56005000      11.96475000      -0.00000020
X        0.79765000      15.15535000      11.96475000      -0.00000020
X        2.39295000      15.15535000      11.96475000      -0.00000020
W        0.00000000      12.76240000      12.76240000      -0.00000110
W        1.59530000      14.35770000      14.35770000      -0.00002324
X        0.79765000      13.56005000      13.56005000      -0.00000531
X        2.39295000      13.56005000      13.56005000      -0.00000531
X        0.79765000      15.15535000      13.56005000      -0.00000531
X        0.79765000      13.56005000      15.15535000      -0.00009187
X        2.39295000      15.15535000      13.56005000      -0.00000531
X        2.39295000      13.56005000      15.15535000      -0.00009187
X        0.79765000      15.15535000      15.15535000      -0.00009187
X        2.39295000      15.15535000      15.15535000      -0.00009187
W        0.00000000      12.76240000      15.95300000      -0.00032793
W        1.59530000      14.35770000      17.54830000      -0.00307912
X        0.79765000      13.56005000      16.75065000      -0.00105733
X        2.39295000      13.56005000      16.75065000      -0.00105733
X        0.79765000      15.15535000      16.75065000      -0.00105733
X        0.79765000      13.56005000      18.34595000      -0.00809897
X        2.39295000      15.15535000      16.75065000      -0.00105733
X        2.39295000      13.56005000      18.34595000      -0.00809897
X        0.79765000      15.15535000      18.34595000      -0.00809897
X        2.39295000      15.15535000      18.34595000      -0.00809897
W        0.00000000      12.76240000      19.14360000      -0.01924076
W        1.59530000      14.35770000      20.73890000      -0.08001555
X        0.79765000      13.56005000      19.94125000      -0.04128609
X        2.39295000      13.56005000      19.94125000      -0.04128609
X        0.79765000      15.15535000      19.94125000      -0.04128609
X        0.79765000      13.56005000      21.53655000      -0.14006646
X        2.39295000      15.15535000      19.94125000      -0.04128609
X        2.39295000      13.56005000      21.53655000      -0.14006646
X        0.79765000      15.15535000      21.53655000      -0.14006646
X        2.39295000      15.15535000      21.53655000      -0.14006646
W        0.00000000      12.76240000      22.33420000      -0.22145376
Ta       1.59530000      14.35770000      23.92950000      -0.40789490
X        0.79765000      13.56005000      23.13185000      -0.31624313
X        2.39295000      13.56005000      23.13185000      -0.31624313
X        0.79765000      15.15535000      23.13185000      -0.31624313
X        0.79765000      13.56005000      24.72715000      -0.47518702
X        2.39295000      15.15535000      23.13185000      -0.31624313
X        2.39295000      13.56005000      24.72715000      -0.47518702
X        0.79765000      15.15535000      24.72715000      -0.47518702
X        2.39295000      15.15535000      24.72715000      -0.47518702
W        0.00000000      12.76240000      25.52480000      -0.50000000
W        1.59530000      14.35770000      27.12010000      -0.40789490
X        0.79765000      13.56005000      26.32245000      -0.47518702
X        2.39295000      13.56005000      26.32245000      -0.47518702
X        0.79765000      15.15535000      26.32245000      -0.47518702
X        0.79765000      13.56005000      27.91775000      -0.31624313
X        2.39295000      15.15535000      26.32245000      -0.47518702
X        2.39295000      13.56005000      27.91775000      -0.31624313
X        0.79765000      15.15535000      27.91775000      -0.31624313
X        2.39295000      15.15535000      27.91775000      -0.31624313
Ta       0.00000000      12.76240000      28.71540000      -0.22145376
W        1.59530000      14.35770000      30.31070000      -0.08001555
X        0.79765000      13.56005000      29.51305000      -0.14006646
X        2.39295000      13.56005000      29.51305000      -0.14006646
X        0.79765000      15.15535000      29.51305000      -0.14006646
X        0.79765000      13.56005000      31.10835000      -0.04128609
X        2.39295000      15.15535000      29.51305000      -0.14006646
X        2.39295000      13.56005000      31.10835000      -0.04128609
X        0.79765000      15.15535000      31.10835000      -0.04128609
X        2.39295000      15.15535000      31.10835000      -0.04128609
W        0.00000000      12.76240000      31.90600000      -0.01924076
W        1.59530000      14.35770000      33.50130000      -0.00307912
X        0.79765000      13.56005000      32.70365000      -0.00809897
X        2.39295000      13.56005000      32.70365000      -0.00809897
X        0.79765000      15.15535000      32.70365000      -0.00809897
X        0.79765000      13.56005000      34.29895000      -0.00105733
X        2.39295000      15.15535000      32.70365000      -0.00809897
X        2.39295000      13.56005000      34.29895000      -0.00105733
X        0.79765000      15.15535000      34.29895000      -0.00105733
X        2.39295000      15.15535000      34.29895000      -0.00105733
Ta       0.00000000      12.76240000      35.09660000      -0.00032793
W        1.59530000      14.35770000      36.69190000      -0.00002324
X        0.79765000      13.56005000      35.89425000      -0.00009187
X        2.39295000      13.56005000      35.89425000      -0.00009187
X        0.79765000      15.15535000      35.89425000      -0.00009187
X        0.79765000      13.56005000      37.48955000      -0.00000531
X        2.39295000      15.15535000      35.89425000      -0.00009187
X        2.39295000      13.56005000      37.48955000      -0.00000531
X        0.79765000      15.15535000      37.48955000      -0.00000531
X        2.39295000      15.15535000      37.48955000      -0.00000531
Ta       0.00000000      12.76240000      38.28720000      -0.00000110
W        1.59530000      14.35770000      39.88250000      -0.00000003
X        0.79765000      13.56005000      39.08485000      -0.00000020
X        2.39295000      13.56005000      39.08485000      -0.00000020
X        0.79765000      15.15535000      39.08485000      -0.00000020
X        0.79765000      13.56005000      40.68015000      -0.00000001
X        2.39295000      15.15535000      39.08485000      -0.00000020
X        2.39295000      13.56005000      40.68015000      -0.00000001
X        0.79765000      15.15535000      40.68015000      -0.00000001
X        2.39295000      15.15535000      40.68015000      -0.00000001
W        0.00000000      12.76240000      41.47780000      -0.00000000
W        1.59530000      14.35770000      43.07310000      -0.00000000
X        0.79765000      13.56005000      42.27545000      -0.00000000
X        2.39295000      13.56005000      42.27545000      -0.00000000
X        0.79765000      15.15535000      42.27545000      -0.00000000
X        0.79765000      13.56005000      43.87075000      -0.00000000
X        2.39295000      15.15535000      42.27545000      -0.00000000
X        2.39295000      13.56005000      43.87075000      -0.00000000
X        0.79765000      15.15535000      43.87075000      -0.00000000
X        2.39295000      15.15535000      43.87075000      -0.00000000
W        0.00000000      12.76240000      44.66840000      -0.00000000
Ta       1.59530000      14.35770000      46.26370000      -0.00000000
X        0.79765000      13.56005000      45.46605000      -0.00000000
X        2.39295000      13.56005000      45.46605000      -0.00000000
X        0.79765000      15.15535000      45.46605000      -0.00000000
X        0.79765000      13.56005000      47.06135000      -0.00000000
X        2.39295000      15.15535000      45.46605000      -0.00000000
X        2.39295000      13.56005000      47.06135000      -0.00000000
X        0.79765000      15.15535000      47.06135000      -0.00000000
X        2.39295000      15.15535000      47.06135000      -0.00000000
W        0.00000000      12.76240000      47.85900000      -0.00000000
Ta       1.59530000      14.35770000      49.45430000      -0.00000000
X        0.79765000      13.56005000      48.65665000      -0.00000000
X        2.39295000      13.56005000      48.65665000      -0.00000000
X        0.79765000      15.15535000      48.65665000      -0.00000000
X        0.79765000      13.56005000      50.25195000      -0.00000000
X        2.39295000      15.15535000      48.65665000      -0.00000000
X        2.39295000      13.56005000      50.25195000      -0.00000000
X        0.79765000      15.15535000      50.25195000      -0.00000000
X        2.39295000      15.15535000      50.25195000      -0.00000000
W        0.00000000      15.95300000       0.00000000      -0.00000000
W        1.59530000      17.54830000       1.59530000      -0.00000000
X        0.79765000      16.75065000       0.79765000      -0.00000000
X        2.39295000      16.75065000       0.79765000      -0.00000000
X        0.79765000      18.34595000       0.79765000      -0.00000000
X        0.79765000      16.75065000       2.39295000      -0.00000000
X        2.39295000      18.34595000       0.79765000      -0.00000000
X        2.39295000      16.75065000       2.39295000      -0.00000000
X        0.79765000      18.34595000       2.39295000      -0.00000000
X        2.39295000      18.34595000       2.39295000      -0.00000000
W        0.00000000      15.95300000       3.19060000      -0.00000000
W        1.59530000      17.54830000       4.78590000      -0.00000000
X        0.79765000      16.75065000       3.98825000      -0.00000000
X        2.39295000      16.75065000       3.98825000      -0.00000000
X        0.79765000      18.34595000       3.98825000      -0.00000000
X        0.79765000      16.75065000       5.58355000      -0.00000000
X        2.39295000      18.34595000       3.98825000      -0.00000000
X        2.39295000      16.75065000       5.58355000      -0.00000000
X        0.79765000      18.34595000       5.58355000      -0.00000000
X        2.39295000      18.34595000       5.58355000      -0.00000000
W        0.00000000      15.95300000       6.38120000      -0.00000000
W        1.59530000      17.54830000       7.97650000      -0.00000000
X        0.79765000      16.75065000       7.17885000      -0.00000000
X        2.39295000      16.75065000       7.17885000      -0.00000000
X        0.79765000      18.34595000       7.17885000      -0.00000000
X        0.79765000      16.75065000       8.77415000      -0.00000000
X        2.39295000      18.34595000       7.17885000      -0.00000000
X        2.39295000      16.75065000       8.77415000      -0.00000000
X        0.79765000      18.34595000       8.77415000      -0.00000000
X        2.39295000      18.34595000       8.77415000      -0.00000000
W        0.00000000      15.95300000       9.57180000      -0.00000000
W        1.59530000      17.54830000      11.16710000      -0.00000003
X        0.79765000      16.75065000      10.36945000      -0.00000001
X        2.39295000      16.75065000      10.36945000      -0.00000001
X        0.79765000      18.34595000      10.36945000      -0.00000001
X        0.79765000      16.75065000      11.96475000      -0.00000020
X        2.39295000      18.34595000      10.36945000      -0.00000001
X        2.39295000      16.75065000      11.96475000      -0.00000020
X        0.79765000      18.34595000      11.96475000      -0.00000020
X        2.39295000      18.34595000      11.96475000      -0.00000020
W        0.00000000      15.95300000      12.76240000      -0.00000110
W        1.59530000      17.54830000      14.35770000      -0.00002324
X        0.79765000      16.75065000      13.56005000      -0.00000531
X        2.39295000      16.75065000      13.56005000      -0.00000531
X        0.79765000      18.34595000      13.56005000      -0.00000531
X        0.79765000      16.75065000      15.15535000      -0.00009187
X        2.39295000      18.34595000      13.56005000      -0.00000531
X        2.39295000      16.75065000      15.15535000      -0.00009187
X        0.79765000      18.34595000      15.15535000      -0.00009187
X        2.39295000      18.34595000      15.15535000      -0.00009187
W        0.00000000      15.95300000      15.95300000      -0.00032793
W        1.59530000      17.54830000      17.54830000      -0.00307912
X        0.79765000      16.75065000      16.75065000      -0.00105733
X        2.39295000      16.75065000      16.75065000      -0.00105733
X        0.79765000      18.34595000      16.75065000      -0.00105733
X        0.79765000      16.75065000      18.34595000      -0.00809897
X        2.39295000      18.34595000      16.75065000      -0.00105733
X        2.39295000      16.75065000      18.34595000      -0.00809897
X        0.79765000      18.34595000      18.34595000      -0.00809897
X        2.39295000      18.34595000      18.34595000      -0.00809897
W        0.00000000      15.95300000      19.14360000      -0.01924076
Ta       1.59530000      17.54830000      20.73890000      -0.08001555
X        0.79765000      16.75065000      19.94125000      -0.04128609
X        2.39295000      16.75065000      19.94125000      -0.04128609
X        0.79765000      18.34595000      19.94125000      -0.04128609
X        0.79765000      16.75065000      21.53655000      -0.14006646
X        2.39295000      18.34595000      19.94125000      -0.04128609
X        2.39295000      16.75065000      21.53655000      -0.14006646
X        0.79765000      18.34595000      21.53655000      -0.14006646
X        2.39295000      18.34595000      21.53655000      -0.14006646
W        0.00000000      15.95300000      22.33420000      -0.22145376
W        1.59530000      17.54830000      23.92950000      -0.40789490
X        0.79765000      16.75065000      23.13185000      -0.31624313
X        2.39295000      16.75065000      23.13185000      -0.31624313
X        0.79765000      18.34595000      23.13185000      -0.31624313
X        0.79765000      16.75065000      24.72715000      -0.47518702
X        2.39295000      18.34595000      23.13185000      -0.31624313
X        2.39295000      16.75065000      24.72715000      -0.47518702
X        0.79765000      18.34595000      24.72715000      -0.47518702
X        2.39295000      18.34595000      24.72715000      -0.47518702
W        0.00000000      15.95300000      25.52480000      -0.50000000
W        1.59530000      17.54830000      27.12010000      -0.40789490
X        0.79765000      16.75065000      26.32245000      -0.47518702
X        2.39295000      16.75065000      26.32245000      -0.47518702
X        0.79765000      18.34595000      26.32245000      -0.47518702
X        0.79765000      16.75065000      27.91775000      -0.31624313
X        2.39295000      18.34595000      26.32245000      -0.47518702
X        2.39295000      16.75065000      27.91775000      -0.31624313
X        0.79765000      18.34595000      27.91775000      -0.31624313
X        2.39295000      18.34595000      27.91775000      -0.31624313
W        0.00000000      15.95300000      28.71540000      -0.22145376
W        1.59530000      17.54830000      30.31070000      -0.08001555
X        0.79765000      16.75065000      29.51305000      -0.14006646
X        2.39295000      16.75065000      29.51305000      -0.14006646
X        0.79765000      18.34595000      29.51305000      -0.14006646
X        0.79765000      16.75065000      31.10835000      -0.04128609
X        2.39295000      18.34595000      29.51305000      -0.14006646
X        2.39295000      16.75065000      31.10835000      -0.04128609
X        0.79765000      18.34595000      31.10835000      -0.04128609
X        2.39295000      18.34595000      31.10835000      -0.04128609
W        0.00000000      15.95300000      31.90600000      -0.01924076
W        1.59530000      17.54830000      33.50130000      -0.00307912
X        0.79765000      16.75065000      32.70365000      -0.00809897
X        2.39295000      16.75065000      32.70365000      -0.00809897
X        0.79765000      18.34595000      32.70365000      -0.00809897
X        0.79765000      16.75065000      34.29895000      -0.00105733
X        2.39295000      18.34595000      32.70365000      -0.00809897
X        2.39295000      16.75065000      34.29895000      -0.00105733
X        0.79765000      18.34595000      34.29895000      -0.00105733
X        2.39295000      18.34595000      34.29895000      -0.00105733
Ta       0.00000000      15.95300000      35.09660000      -0.00032793
W        1.59530000      17.54830000      36.69190000      -0.00002324
X        0.79765000      16.75065000      35.89425000      -0.00009187
X        2.39295000      16.75065000      35.89425000      -0.00009187
X        0.79765000      18.34595000      35.89425000      -0.00009187
X        0.79765000      16.75065000      37.48955000      -0.00000531
X        2.39295000      18.34595000      35.89425000      -0.00009187
X        2.39295000      16.75065000      37.48955000      -0.00000531
X        0.79765000      18.34595000      37.48955000      -0.00000531
X        2.39295000      18.34595000      37.48955000      -0.00000531
W        0.00000000      15.95300000      38.28720000      -0.00000110
Ta       1.59530000      17.54830000      39.88250000      -0.00000003
X        0.79765000      16.75065000      39.08485000      -0.00000020
X        2.39295000      16.75065000      39.08485000      -0.00000020
X        0.79765000      18.34595000      39.08485000      -0.00000020
X        0.79765000      16.75065000      40.68015000      -0.00000001
X        2.39295000      18.34595000      39.08485000      -0.00000020
X        2.39295000      16.75065000      40.68015000      -0.00000001
X        0.79765000      18.34595000      40.68015000      -0.00000001
X        2.39295000      18.34595000      40.68015000      -0.00000001
W        0.00000000      15.95300000      41.47780000      -0.00000000
W        1.59530000      17.54830000      43.07310000      -0.00000000
X        0.79765000      16.75065000      42.27545000      -0.00000000
X        2.39295000      16.75065000      42.27545000      -0.00000000
X        0.79765000      18.34595000      42.27545000      -0.00000000
X        0.79765000      16.75065000      43.87075000      -0.00000000
X        2.39295000      18.34595000      42.27545000      -0.00000000
X        2.39295000      16.75065000      43.87075000      -0.00000000
X        0.79765000      18.34595000      43.87075000      -0.00000000
X        2.39295000      18.34595000      43.87075000      -0.00000000
W        0.00000000      15.95300000      44.66840000      -0.00000000
W        1.59530000      17.54830000      46.26370000      -0.00000000
X        0.79765000      16.75065000      45.46605000      -0.00000000
X        2.39295000      16.75065000      45.46605000      -0.00000000
X        0.79765000      18.34595000      45.46605000      -0.00000000
X        0.79765000      16.75065000      47.06135000      -0.00000000
X        2.39295000      18.34595000      45.46605000      -0.00000000
X        2.39295000      16.75065000      47.06135000      -0.00000000
X        0.79765000      18.34595000      47.06135000      -0.00000000
X        2.39295000      18.34595000      47.06135000      -0.00000000
Ta       0.00000000      15.95300000      47.85900000      -0.00000000
W        1.59530000      17.54830000      49.45430000      -0.00000000
X        0.79765000      16.75065000      48.65665000      -0.00000000
X        2.39295000      16.75065000      48.65665000      -0.00000000
X        0.79765000      18.34595000      48.65665000      -0.00000000
X        0.79765000      16.75065000      50.25195000      -0.00000000
X        2.39295000      18.34595000      48.65665000      -0.00000000
X        2.39295000      16.75065000      50.25195000      -0.00000000
X        0.79765000      18.34595000      50.25195000      -0.00000000
X        2.39295000      18.34595000      50.25195000      -0.00000000
W        0.00000000      19.14360000       0.00000000      -0.00000000
Ta       1.59530000      20.73890000       1.59530000      -0.00000000
X        0.79765000      19.94125000       0.79765000      -0.00000000
X        2.39295000      19.94125000       0.79765000      -0.00000000
X        0.79765000      21.53655000       0.79765000      -0.00000000
X        0.79765000      19.94125000       2.39295000      -0.00000000
X        2.39295000      21.53655000       0.79765000      -0.00000000
X        2.39295000      19.94125000       2.39295000      -0.00000000
X        0.79765000      21.53655000       2.39295000      -0.00000000
X        2.39295000      21.53655000       2.39295000      -0.00000000
W        0.00000000      19.14360000       3.19060000      -0.00000000
W        1.59530000      20.73890000       4.78590000      -0.00000000
X        0.79765000      19.94125000       3.98825000      -0.00000000
X        2.39295000      19.94125000       3.98825000      -0.00000000
X        0.79765000      21.53655000       3.98825000      -0.00000000
X        0.79765000      19.94125000       5.58355000      -0.00000000
X        2.39295000      21.53655000       3.98825000      -0.00000000
X        2.39295000      19.94125000       5.58355000      -0.00000000
X        0.79765000      21.53655000       5.58355000      -0.00000000
X        2.39295000      21.53655000       5.58355000      -0.00000000
Ta       0.00000000      19.14360000       6.38120000      -0.00000000
W        1.59530000      20.73890000       7.97650000      -0.00000000
X        0.79765000      19.94125000       7.17885000      -0.00000000
X        2.39295000      19.94125000       7.17885000      -0.00000000
X        0.79765000      21.53655000       7.17885000      -0.00000000
X        0.79765000      19.94125000       8.77415000      -0.00000000
X        2.39295000      21.53655000       7.17885000      -0.00000000
X        2.39295000      19.94125000       8.77415000      -0.00000000
X        0.79765000      21.53655000       8.77415000      -0.00000000
X        2.39295000      21.53655000       8.77415000      -0.00000000
W        0.00000000      19.14360000       9.57180000      -0.00000000
W        1.59530000      20.73890000      11.16710000      -0.00000003
X        0.79765000      19.94125000      10.36945000      -0.00000001
X        2.39295000      19.94125000      10.36945000      -0.00000001
X        0.79765000      21.53655000      10.36945000      -0.00000001
X        0.79765000      19.94125000      11.96475000      -0.00000020
X        2.39295000      21.53655000      10.36945000      -0.00000001
X        2.39295000      19.94125000      11.96475000      -0.00000020
X        0.79765000      21.53655000      11.96475000      -0.00000020
X        2.39295000      21.53655000      11.96475000      -0.00000020
W        0.00000000      19.14360000      12.76240000      -0.00000110
Ta       1.59530000      20.73890000      14.35770000      -0.00002324
X        0.79765000      19.94125000      13.56005000      -0.00000531
X        2.39295000      19.94125000      13.56005000      -0.00000531
X        0.79765000      21.53655000      13.56005000      -0.00000531
X        0.79765000      19.94125000      15.15535000      -0.00009187
X        2.39295000      21.53655000      13.56005000      -0.00000531
X        2.39295000      19.94125000      15.15535000      -0.00009187
X        0.79765000      21.53655000      15.15535000      -0.00009187
X        2.39295000      21.53655000      15.15535000      -0.00009187
W        0.00000000      19.14360000      15.95300000      -0.00032793
Ta       1.59530000      20.73890000      17.54830000      -0.00307912
X        0.79765000      19.94125000      16.75065000      -0.00105733
X        2.39295000      19.94125000      16.75065000      -0.00105733
X        0.79765000      21.53655000      16.75065000      -0.00105733
X        0.79765000      19.94125000      18.34595000      -0.00809897
X        2.39295000      21.53655000      16.75065000      -0.00105733
X        2.39295000      19.94125000      18.34595000      -0.00809897
X        0.79765000      21.53655000      18.34595000      -0.00809897
X        2.39295000      21.53655000      18.34595000      -0.00809897
W        0.00000000      19.14360000      19.14360000      -0.01924076
W        1.59530000      20.73890000      20.73890000      -0.08001555
X        0.79765000      19.94125000      19.94125000      -0.04128609
X        2.39295000      19.94125000      19.94125000      -0.04128609
X        0.79765000      21.53655000      19.94125000      -0.04128609
X        0.79765000      19.94125000      21.53655000      -0.14006646
X        2.39295000      21.53655000      19.94125000      -0.04128609
X        2.39295000      19.94125000      21.53655000      -0.14006646
X        0.79765000      21.53655000      21.53655000      -0.14006646
X        2.39295000      21.53655000      21.53655000      -0.14006646
W        0.00000000      19.14360000      22.33420000      -0.22145376
Ta       1.59530000      20.73890000      23.92950000      -0.40789490
X        0.79765000      19.94125000      23.13185000      -0.31624313
X        2.39295000      19.94125000      23.13185000      -0.31624313
X        0.79765000      21.53655000      23.13185000      -0.31624313
X        0.79765000      19.94125000      24.72715000      -0.47518702
X        2.39295000      21.53655000      23.13185000      -0.31624313
X        2.39295000      19.94125000      24.72715000      -0.47518702
X        0.79765000      21.53655000      24.72715000      -0.47518702
X        2.39295000      21.53655000      24.72715000      -0.47518702
W        0.00000000      19.14360000      25.52480000      -0.50000000
W        1.59530000      20.73890000      27.12010000      -0.40789490
X        0.79765000      19.94125000      26.32245000      -0.47518702
X        2.39295000      19.94125000      26.32245000      -0.47518702
X        0.79765000      21.53655000      26.32245000      -0.47518702
X        0.79765000      19.94125000      27.91775000      -0.31624313
X        2.39295000      21.53655000      26.32245000      -0.47518702
X        2.39295000      19.94125000      27.91775000      -0.31624313
X        0.79765000      21.53655000      27.91775000      -0.31624313
X        2.39295000      21.53655000      27.91775000      -0.31624313
Ta       0.00000000      19.14360000      28.71540000      -0.22145376
W        1.59530000      20.73890000      30.31070000      -0.08001555
X        0.79765000      19.94125000      29.51305000      -0.14006646
X        2.39295000      19.94125000      29.51305000      -0.14006646
X        0.79765000      21.53655000      29.51305000      -0.14006646
X        0.79765000      19.94125000      31.10835000      -0.04128609
X        2.39295000      21.53655000      29.51305000      -0.14006646
X        2.39295000      19.94125000      31.10835000      -0.04128609
X        0.79765000      21.53655000      31.10835000      -0.04128609
X        2.39295000      21.53655000      31.10835000      -0.04128609
Ta       0.00000000      19.14360000      31.90600000      -0.01924076
W        1.59530000      20.73890000      33.50130000      -0.00307912
X        0.79765000      19.94125000      32.70365000      -0.00809897
X        2.39295000      19.94125000      32.70365000      -0.00809897
X        0.79765000      21.53655000      32.70365000      -0.00809897
X        0.79765000      19.94125000      34.29895000      -0.00105733
X        2.39295000      21.53655000      32.70365000      -0.00809897
X        2.39295000      19.94125000      34.29895000      -0.00105733
X        0.79765000      21.53655000      34.29895000      -0.00105733
X        2.39295000      21.53655000      34.29895000      -0.00105733
Ta       0.00000000      19.14360000      35.09660000      -0.00032793
W        1.59530000      20.73890000      36.69190000      -0.00002324
X        0.79765000      19.94125000      35.89425000      -0.00009187
X        2.39295000      19.94125000      35.89425000      -0.00009187
X        0.79765000      21.53655000      35.89425000      -0.00009187
X        0.79765000      19.94125000      37.48955000      -0.00000531
X        2.39295000      21.53655000      35.89425000      -0.00009187
X        2.39295000      19.94125000      37.48955000      -0.00000531
X        0.79765000      21.53655000      37.48955000      -0.00000531
X        2.39295000      21.53655000      37.48955000      -0.00000531
W        0.00000000      19.14360000      38.28720000      -0.00000110
W        1.59530000      20.73890000      39.88250000      -0.00000003
X        0.79765000      19.94125000      39.08485000      -0.00000020
X        2.39295000      19.94125000      39.08485000      -0.00000020
X        0.79765000      21.53655000      39.08485000      -0.00000020
X        0.79765000      19.94125000      40.68015000      -0.00000001
X        2.39295000      21.53655000      39.08485000      -0.00000020
X        2.39295000      19.94125000      40.68015000      -0.00000001
X        0.79765000      21.53655000      40.68015000      -0.00000001
X        2.39295000      21.53655000      40.68015000      -0.00000001
W        0.00000000      19.14360000      41.47780000      -0.00000000
W        1.59530000      20.73890000      43.07310000      -0.00000000
X        0.79765000      19.94125000      42.27545000      -0.00000000
X        2.39295000      19.94125000      42.27545000      -0.00000000
X        0.79765000      21.53655000      42.27545000      -0.00000000
X        0.79765000      19.94125000      43.87075000      -0.00000000
X        2.39295000      21.53655000      42.27545000      -0.00000000
X        2.39295000      19.94125000      43.87075000      -0.00000000
X        0.79765000      21.53655000      43.87075000      -0.00000000
X        2.39295000      21.53655000      43.87075000      -0.00000000
W        0.00000000      19.14360000      44.66840000      -0.00000000
Ta       1.59530000      20.73890000      46.26370000      -0.00000000
X        0.79765000      19.94125000      45.46605000      -0.00000000
X        2.39295000      19.94125000      45.46605000      -0.00000000
X        0.79765000      21.53655000      45.46605000      -0.00000000
X        0.79765000      19.94125000      47.06135000      -0.00000000
X        2.39295000      21.53655000      45.46605000      -0.00000000
X        2.39295000      19.94125000      47.06135000      -0.00000000
X        0.79765000      21.53655000      47.06135000      -0.00000000
X        2.39295000      21.53655000      47.06135000      -0.00000000
Ta       0.00000000      19.14360000      47.85900000      -0.00000000
Ta       1.59530000      20.73890000      49.45430000      -0.00000000
X        0.79765000      19.94125000      48.65665000      -0.00000000
X        2.39295000      19.94125000      48.65665000      -0.00000000
X        0.79765000      21.53655000      48.65665000      -0.00000000
X        0.79765000      19.94125000      50.25195000      -0.00000000
X        2.39295000      21.53655000      48.65665000      -0.00000000
X        2.39295000      19.94125000      50.25195000      -0.00000000
X        0.79765000      21.53655000      50.25195000      -0.00000000
X        2.39295000      21.53655000      50.25195000      -0.00000000
W        0.00000000      22.33420000       0.00000000      -0.00000000
W        1.59530000      23.92950000       1.59530000      -0.00000000
X        0.79765000      23.13185000       0.79765000      -0.00000000
X        2.39295000      23.13185000       0.79765000      -0.00000000
X        0.79765000      24.72715000       0.79765000      -0.00000000
X        0.79765000      23.13185000       2.39295000      -0.00000000
X        2.39295000      24.72715000       0.79765000      -0.00000000
X        2.39295000      23.13185000       2.39295000      -0.00000000
X        0.79765000      24.72715000       2.39295000      -0.00000000
X        2.39295000      24.72715000       2.39295000      -0.00000000
W        0.00000000      22.33420000       3.19060000      -0.00000000
Ta       1.59530000      23.92950000       4.78590000      -0.00000000
X        0.79765000      23.13185000       3.98825000      -0.00000000
X        2.39295000      23.13185000       3.98825000      -0.00000000
X        0.79765000      24.72715000       3.98825000      -0.00000000
X        0.79765000      23.13185000       5.58355000      -0.00000000
X        2.39295000      24.72715000       3.98825000      -0.00000000
X        2.39295000      23.13185000       5.58355000      -0.00000000
X        0.79765000      24.72715000       5.58355000      -0.00000000
X        2.39295000      24.72715000       5.58355000      -0.00000000
W        0.00000000      22.33420000       6.38120000      -0.00000000
W        1.59530000      23.92950000       7.97650000      -0.00000000
X        0.79765000      23.13185000       7.17885000      -0.00000000
X        2.39295000      23.13185000       7.17885000      -0.00000000
X        0.79765000      24.72715000       7.17885000      -0.00000000
X        0.79765000      23.13185000       8.77415000      -0.00000000
X        2.39295000      24.72715000       7.17885000      -0.00000000
X        2.39295000      23.13185000       8.77415000      -0.00000000
X        0.79765000      24.72715000       8.77415000      -0.00000000
X        2.39295000      24.72715000       8.77415000      -0.00000000
W        0.00000000      22.33420000       9.57180000      -0.00000000
W        1.59530000      23.92950000      11.16710000      -0.00000003
X        0.79765000      23.13185000      10.36945000      -0.00000001
X        2.39295000      23.13185000      10.36945000      -0.00000001
X        0.79765000      24.72715000      10.36945000      -0.00000001
X        0.79765000      23.13185000      11.96475000      -0.00000020
X        2.39295000      24.72715000      10.36945000      -0.00000001
X        2.39295000      23.13185000      11.96475000      -0.00000020
X        0.79765000      24.72715000      11.96475000      -0.00000020
X        2.39295000      24.72715000      11.96475000      -0.00000020
W        0.00000000      22.33420000      12.76240000      -0.00000110
W        1.59530000      23.92950000      14.35770000      -0.00002324
X        0.79765000      23.13185000      13.56005000      -0.00000531
X        2.39295000      23.13185000      13.56005000      -0.00000531
X        0.79765000      24.72715000      13.56005000      -0.00000531
X        0.79765000      23.13185000      15.15535000      -0.00009187
X        2.39295000      24.72715000      13.56005000      -0.00000531
X        2.39295000      23.13185000      15.15535000      -0.00009187
X        0.79765000      24.72715000      15.15535000      -0.00009187
X        2.39295000      24.72715000      15.15535000      -0.00009187
Ta       0.00000000      22.33420000      15.95300000      -0.00032793
W        1.59530000      23.92950000      17.54830000      -0.00307912
X        0.79765000      23.13185000      16.75065000      -0.00105733
X        2.39295000      23.13185000      16.75065000      -0.00105733
X        0.79765000      24.72715000      16.75065000      -0.00105733
X        0.79765000      23.13185000      18.34595000      -0.00809897
X        2.39295000      24.72715000      16.75065000      -0.00105733
X        2.39295000      23.13185000      18.34595000      -0.00809897
X        0.79765000      24.72715000      18.34595000      -0.00809897
X        2.39295000      24.72715000      18.34595000      -0.00809897
Ta       0.00000000      22.33420000      19.14360000      -0.01924076
W        1.59530000      23.92950000      20.73890000      -0.08001555
X        0.79765000      23.13185000      19.94125000      -0.04128609
X        2.39295000      23.13185000      19.94125000      -0.04128609
X        0.79765000      24.72715000      19.94125000      -0.04128609
X        0.79765000      23.13185000      21.53655000      -0.14006646
X        2.39295000      24.72715000      19.94125000      -0.04128609
X        2.39295000      23.13185000      21.53655000      -0.14006646
X        0.79765000      24.72715000      21.53655000      -0.14006646
X        2.39295000      24.72715000      21.53655000      -0.14006646
W        0.00000000      22.33420000      22.33420000      -0.22145376
W        1.59530000      23.92950000      23.92950000      -0.40789490
X        0.79765000      23.13185000      23.13185000      -0.31624313
X        2.39295000      23.13185000      23.13185000      -0.31624313
X        0.79765000      24.72715000      23.13185000      -0.31624313
X        0.79765000      23.13185000      24.72715000      -0.47518702
X        2.39295000      24.72715000      23.13185000      -0.31624313
X        2.39295000      23.13185000      24.72715000      -0.47518702
X        0.79765000      24.72715000      24.72715000      -0.47518702
X        2.39295000      24.72715000      24.72715000      -0.47518702
Ta       0.00000000      22.33420000      25.52480000      -0.50000000
W        1.59530000      23.92950000      27.12010000      -0.40789490
X        0.79765000      23.13185000      26.32245000      -0.47518702
X        2.39295000      23.13185000      26.32245000      -0.47518702
X        0.79765000      24.72715000      26.32245000      -0.47518702
X        0.79765000      23.13185000      27.91775000      -0.31624313
X        2.39295000      24.72715000      26.32245000      -0.47518702
X        2.39295000      23.13185000      27.91775000      -0.31624313
X        0.79765000      24.72715000      27.91775000      -0.31624313
X        2.39295000      24.72715000      27.91775000      -0.31624313
W        0.00000000      22.33420000      28.71540000      -0.22145376
W        1.59530000      23.92950000      30.31070000      -0.08001555
X        0.79765000      23.13185000      29.51305000      -0.14006646
X        2.39295000      23.13185000      29.51305000      -0.14006646
X        0.79765000      24.72715000      29.51305000      -0.14006646
X        0.79765000      23.13185000      31.10835000      -0.04128609
X        2.39295000      24.72715000      29.51305000      -0.14006646
X        2.39295000      23.13185000      31.10835000      -0.04128609
X        0.79765000      24.72715000      31.10835000      -0.04128609
X        2.39295000      24.72715000      31.10835000      -0.04128609
W        0.00000000      22.33420000      31.90600000      -0.01924076
W        1.59530000      23.92950000      33.50130000      -0.00307912
X        0.79765000      23.13185000      32.70365000      -0.00809897
X        2.39295000      23.13185000      32.70365000      -0.00809897
X        0.79765000      24.72715000      32.70365000      -0.00809897
X        0.79765000      23.13185000      34.29895000      -0.00105733
X        2.39295000      24.72715000      32.70365000      -0.00809897
X        2.39295000      23.13185000      34.29895000      -0.00105733
X        0.79765000      24.72715000      34.29895000      -0.00105733
X        2.39295000      24.72715000      34.29895000      -0.00105733
W        0.00000000      22.33420000      35.09660000      -0.00032793
W        1.59530000      23.92950000      36.69190000      -0.00002324
X        0.79765000      23.13185000      35.89425000      -0.00009187
X        2.39295000      23.13185000      35.89425000      -0.00009187
X        0.79765000      24.72715000      35.89425000      -0.00009187
X        0.79765000      23.13185000      37.48955000      -0.00000531
X        2.39295000      24.72715000      35.89425000      -0.00009187
X        2.39295000      23.13185000      37.48955000      -0.00000531
X        0.79765000      24.72715000      37.48955000      -0.00000531
X        2.39295000      24.72715000      37.48955000      -0.00000531
Ta       0.00000000      22.33420000      38.28720000      -0.00000110
W        1.59530000      23.92950000      39.88250000      -0.00000003
X        0.79765000      23.13185000      39.08485000      -0.00000020
X        2.39295000      23.13185000      39.08485000      -0.00000020
X        0.79765000      24.72715000      39.08485000      -0.00000020
X        0.79765000      23.13185000      40.68015000      -0.00000001
X        2.39295000      24.72715000      39.08485000      -0.00000020
X        2.39295000      23.13185000      40.68015000      -0.00000001
X        0.79765000      24.72715000      40.68015000      -0.00000001
X        2.39295000      24.72715000      40.68015000      -0.00000001
W        0.00000000      22.33420000      41.47780000      -0.00000000
W        1.59530000      23.92950000      43.07310000      -0.00000000
X        0.79765000      23.13185000      42.27545000      -0.00000000
X        2.39295000      23.13185000      42.27545000      -0.00000000
X        0.79765000      24.72715000      42.27545000      -0.00000000
X        0.79765000      23.13185000      43.87075000      -0.00000000
X        2.39295000      24.72715000      42.27545000      -0.00000000
X        2.39295000      23.13185000      43.87075000      -0.00000000
X        0.79765000      24.72715000      43.87075000      -0.00000000
X        2.39295000      24.72715000      43.87075000      -0.00000000
W        0.00000000      22.33420000      44.66840000      -0.00000000
W        1.59530000      23.92950000      46.26370000      -0.00000000
X        0.79765000      23.13185000      45.46605000      -0.00000000
X        2.39295000      23.13185000      45.46605000      -0.00000000
X        0.79765000      24.72715000      45.46605000      -0.00000000
X        0.79765000      23.13185000      47.06135000      -0.00000000
X        2.39295000      24.72715000      45.46605000      -0.00000000
X        2.39295000      23.13185000      47.06135000      -0.00000000
X        0.79765000      24.72715000      47.06135000      -0.00000000
X        2.39295000      24.72715000      47.06135000      -0.00000000
W        0.00000000      22.33420000      47.85900000      -0.00000000
W        1.59530000      23.92950000      49.45430000      -0.00000000
X        0.79765000      23.13185000      48.65665000      -0.00000000
X        2.39295000      23.13185000      48.65665000      -0.00000000
X        0.79765000      24.72715000      48.65665000      -0.00000000
X        0.79765000      23.13185000      50.25195000      -0.00000000
X        2.39295000      24.72715000      48.65665000      -0.00000000
X        2.39295000      23.13185000      50.25195000      -0.00000000
X        0.79765000      24.72715000      50.25195000      -0.00000000
X        2.39295000      24.72715000      50.25195000      -0.00000000
W        0.00000000      25.52480000       0.00000000      -0.00000000
Ta       1.59530000      27.12010000       1.59530000      -0.00000000
X        0.79765000      26.32245000       0.79765000      -0.00000000
X        2.39295000      26.32245000       0.79765000      -0.00000000
X        0.79765000      27.91775000       0.79765000      -0.00000000
X        0.79765000      26.32245000       2.39295000      -0.00000000
X        2.39295000      27.91775000       0.79765000      -0.00000000
X        2.39295000      26.32245000       2.39295000      -0.00000000
X        0.79765000      27.91775000       2.39295000      -0.00000000
X        2.39295000      27.91775000       2.39295000      -0.00000000
W        0.00000000      25.52480000       3.19060000      -0.00000000
W        1.59530000      27.12010000       4.78590000      -0.00000000
X        0.79765000      26.32245000       3.98825000      -0.00000000
X        2.39295000      26.32245000       3.98825000      -0.00000000
X        0.79765000      27.91775000       3.98825000      -0.00000000
X        0.79765000      26.32245000       5.58355000      -0.00000000
X        2.39295000      27.91775000       3.98825000      -0.00000000
X        2.39295000      26.32245000       5.58355000      -0.00000000
X        0.79765000      27.91775000       5.58355000      -0.00000000
X        2.39295000      27.91775000       5.58355000      -0.00000000
W        0.00000000      25.52480000       6.38120000      -0.00000000
W        1.59530000      27.12010000       7.97650000      -0.00000000
X        0.79765000      26.32245000       7.17885000      -0.00000000
X        2.39295000      26.32245000       7.17885000      -0.00000000
X        0.79765000      27.91775000       7.17885000      -0.00000000
X        0.79765000      26.32245000       8.77415000      -0.00000000
X        2.39295000      27.91775000       7.17885000      -0.00000000
X        2.39295000      26.32245000       8.77415000      -0.00000000
X        0.79765000      27.91775000       8.77415000      -0.00000000
X        2.39295000      27.91775000       8.77415000      -0.00000000
W        0.00000000      25.52480000       9.57180000      -0.00000000
W        1.59530000      27.12010000      11.16710000      -0.00000003
X        0.79765000      26.32245000      10.36945000      -0.00000001
X        2.39295000      26.32245000      10.36945000      -0.00000001
X        0.79765000      27.91775000      10.36945000      -0.00000001
X        0.79765000      26.32245000      11.96475000      -0.00000020
X        2.39295000      27.91775000      10.36945000      -0.00000001
X        2.39295000      26.32245000      11.96475000      -0.00000020
X        0.79765000      27.91775000      11.96475000      -0.00000020
X        2.39295000      27.91775000      11.96475000      -0.00000020
W        0.00000000      25.52480000      12.76240000      -0.00000110
W        1.59530000      27.12010000      14.35770000      -0.00002324
X        0.79765000      26.32245000      13.56005000      -0.00000531
X        2.39295000      26.32245000      13.56005000      -0.00000531
X        0.79765000      27.91775000      13.56005000      -0.00000531
X        0.79765000      26.32245000      15.15535000      -0.00009187
X        2.39295000      27.91775000      13.56005000      -0.00000531
X        2.39295000      26.32245000      15.15535000      -0.00009187
X        0.79765000      27.91775000      15.15535000      -0.00009187
X        2.39295000      27.91775000      15.15535000      -0.00009187
W        0.00000000      25.52480000      15.95300000      -0.00032793
Ta       1.59530000      27.12010000      17.54830000      -0.00307912
X        0.79765000      26.32245000      16.75065000      -0.00105733
X        2.39295000      26.32245000      16.75065000      -0.00105733
X        0.79765000      27.91775000      16.75065000      -0.00105733
X        0.79765000      26.32245000      18.34595000      -0.00809897
X        2.39295000      27.91775000      16.75065000      -0.00105733
X        2.39295000      26.32245000      18.34595000      -0.00809897
X        0.79765000      27.91775000      18.34595000      -0.00809897
X        2.39295000      27.91775000      18.34595000      -0.00809897
W        0.00000000      25.52480000      19.14360000      -0.01924076
Ta       1.59530000      27.12010000      20.73890000      -0.08001555
X        0.79765000      26.32245000      19.94125000      -0.04128609
X        2.39295000      26.32245000      19.94125000      -0.04128609
X        0.79765000      27.91775000      19.94125000      -0.04128609
X        0.79765000      26.32245000      21.53655000      -0.14006646
X        2.39295000      27.91775000      19.94125000      -0.04128609
X        2.39295000      26.32245000      21.53655000      -0.14006646
X        0.79765000      27.91775000      21.53655000      -0.14006646
X        2.39295000      27.91775000      21.53655000      -0.14006646
W        0.00000000      25.52480000      22.33420000      -0.22145376
W        1.59530000      27.12010000      23.92950000      -0.40789490
X        0.79765000      26.32245000      23.13185000      -0.31624313
X        2.39295000      26.32245000      23.13185000      -0.31624313
X        0.79765000      27.91775000      23.13185000      -0.31624313
X        0.79765000      26.32245000      24.72715000      -0.47518702
X        2.39295000      27.91775000      23.13185000      -0.31624313
X        2.39295000      26.32245000      24.72715000      -0.47518702
X        0.79765000      27.91775000      24.72715000      -0.47518702
X        2.39295000      27.91775000      24.72715000      -0.47518702
Ta       0.00000000      25.52480000      25.52480000      -0.50000000
W        1.59530000      27.12010000      27.12010000      -0.40789490
X        0.79765000      26.32245000      26.32245000      -0.47518702
X        2.39295000      26.32245000      26.32245000      -0.47518702
X        0.79765000      27.91775000      26.32245000      -0.47518702
X        0.79765000      26.32245000      27.91775000      -0.31624313
X        2.39295000      27.91775000      26.32245000      -0.47518702
X        2.39295000      26.32245000      27.91775000      -0.31624313
X        0.79765000      27.91775000      27.91775000      -0.31624313
X        2.39295000      27.91775000      27.91775000      -0.31624313
W        0.00000000      25.52480000      28.71540000      -0.22145376
W        1.59530000      27.12010000      30.31070000      -0.08001555
X        0.79765000      26.32245000      29.51305000      -0.14006646
X        2.39295000      26.32245000      29.51305000      -0.14006646
X        0.79765000      27.91775000      29.51305000      -0.14006646
X        0.79765000      26.32245000      31.10835000      -0.04128609
X        2.39295000      27.91775000      29.51305000      -0.14006646
X        2.39295000      26.32245000      31.10835000      -0.04128609
X        0.79765000      27.91775000      31.10835000      -0.04128609
X        2.39295000      27.91775000      31.10835000      -0.04128609
W        0.00000000      25.52480000      31.90600000      -0.01924076
W        1.59530000      27.12010000      33.50130000      -0.00307912
X        0.79765000      26.32245000      32.70365000      -0.00809897
X        2.39295000      26.32245000      32.70365000      -0.00809897
X        0.79765000      27.91775000      32.70365000      -0.00809897
X        0.79765000      26.32245000      34.29895000      -0.00105733
X        2.39295000      27.91775000      32.70365000      -0.00809897
X        2.39295000      26.32245000      34.29895000      -0.00105733
X        0.79765000      27.91775000      34.29895000      -0.00105733
X        2.39295000      27.91775000      34.29895000      -0.00105733
W        0.00000000      25.52480000      35.09660000      -0.00032793
W        1.59530000      27.12010000      36.69190000      -0.00002324
X        0.79765000      26.32245000      35.89425000      -0.00009187
X        2.39295000      26.32245000      35.89425000      -0.00009187
X        0.79765000      27.91775000      35.89425000      -0.00009187
X        0.79765000      26.32245000      37.48955000      -0.00000531
X        2.39295000      27.91775000      35.89425000      -0.00009187
X        2.39295000      26.32245000      37.48955000      -0.00000531
X        0.79765000      27.91775000      37.48955000      -0.00000531
X        2.39295000      27.91775000      37.48955000      -0.00000531
W        0.00000000      25.52480000      38.28720000      -0.00000110
W        1.59530000      27.12010000      39.88250000      -0.00000003
X        0.79765000      26.32245000      39.08485000      -0.00000020
X        2.39295000      26.32245000      39.08485000      -0.00000020
X        0.79765000      27.91775000      39.08485000      -0.00000020
X        0.79765000      26.32245000      40.68015000      -0.00000001
X        2.39295000      27.91775000      39.08485000      -0.00000020
X        2.39295000      26.32245000      40.68015000      -0.00000001
X        0.79765000      27.91775000      40.68015000      -0.00000001
X        2.39295000      27.91775000      40.68015000      -0.00000001
W        0.00000000      25.52480000      41.47780000      -0.00000000
W        1.59530000      27.12010000      43.07310000      -0.00000000
X        0.79765000      26.32245000      42.27545000      -0.00000000
X        2.39295000      26.32245000      42.27545000      -0.00000000
X        0.79765000      27.91775000      42.27545000      -0.00000000
X        0.79765000      26.32245000      43.87075000      -0.00000000
X        2.39295000      27.91775000      42.27545000      -0.00000000
X        2.39295000      26.32245000      43.87075000      -0.00000000
X        0.79765000      27.91775000      43.87075000      -0.00000000
X        2.39295000      27.91775000      43.87075000      -0.00000000
W        0.00000000      25.52480000      44.66840000      -0.00000000
W        1.59530000      27.12010000      46.26370000      -0.00000000
X        0.79765000      26.32245000      45.46605000      -0.00000000
X        2.39295000      26.32245000      45.46605000      -0.00000000
X        0.79765000      27.91775000      45.46605000      -0.00000000
X        0.79765000      26.32245000      47.06135000      -0.00000000
X        2.39295000      27.91775000      45.46605000      -0.00000000
X        2.39295000      26.32245000      47.06135000      -0.00000000
X        0.79765000      27.91775000      47.06135000      -0.00000000
X        2.39295000      27.91775000      47.06135000      -0.00000000
W        0.00000000      25.52480000      47.85900000      -0.00000000
W        1.59530000      27.12010000      49.45430000      -0.00000000
X        0.79765000      26.32245000      48.65665000      -0.00000000
X        2.39295000      26.32245000      48.65665000      -0.00000000
X        0.79765000      27.91775000      48.65665000      -0.00000000
X        0.79765000      26.32245000      50.25195000      -0.00000000
X        2.39295000      27.91775000      48.65665000      -0.00000000
X        2.39295000      26.32245000      50.25195000      -0.00000000
X        0.79765000      27.91775000      50.25195000      -0.00000000
X        2.39295000      27.91775000      50.25195000      -0.00000000
W        0.00000000      28.71540000       0.00000000      -0.00000000
Ta       1.59530000      30.31070000       1.59530000      -0.00000000
X        0.79765000      29.51305000       0.79765000      -0.00000000
X        2.39295000      29.51305000       0.79765000      -0.00000000
X        0.79765000      31.10835000       0.79765000      -0.00000000
X        0.79765000      29.51305000       2.39295000      -0.00000000
X        2.39295000      31.10835000       0.79765000      -0.00000000
X        2.39295000      29.51305000       2.39295000      -0.00000000
X        0.79765000      31.10835000       2.39295000      -0.00000000
X        2.39295000      31.10835000       2.39295000      -0.00000000
W        0.00000000      28.71540000       3.19060000      -0.00000000
Ta       1.59530000      30.31070000       4.78590000      -0.00000000
X        0.79765000      29.51305000       3.98825000      -0.00000000
X        2.39295000      29.51305000       3.98825000      -0.00000000
X        0.79765000      31.10835000       3.98825000      -0.00000000
X        0.79765000      29.51305000       5.58355000      -0.00000000
X        2.39295000      31.10835000       3.98825000      -0.00000000
X        2.39295000      29.51305000       5.58355000      -0.00000000
X        0.79765000      31.10835000       5.58355000      -0.00000000
X        2.39295000      31.10835000       5.58355000      -0.00000000
W        0.00000000      28.71540000       6.38120000      -0.00000000
W        1.59530000      30.31070000       7.97650000      -0.00000000
X        0.79765000      29.51305000       7.17885000      -0.00000000
X        2.39295000      29.51305000       7.17885000      -0.00000000
X        0.79765000      31.10835000       7.17885000      -0.00000000
X        0.79765000      29.51305000       8.77415000      -0.00000000
X        2.39295000      31.10835000       7.17885000      -0.00000000
X        2.39295000      29.51305000       8.77415000      -0.00000000
X        0.79765000      31.10835000       8.77415000      -0.00000000
X        2.39295000      31.10835000       8.77415000      -0.00000000
W        0.00000000      28.71540000       9.57180000      -0.00000000
W        1.59530000      30.31070000      11.16710000      -0.00000003
X        0.79765000      29.51305000      10.36945000      -0.00000001
X        2.39295000      29.51305000      10.36945000      -0.00000001
X        0.79765000      31.10835000      10.36945000      -0.00000001
X        0.79765000      29.51305000      11.96475000      -0.00000020
X        2.39295000      31.10835000      10.36945000      -0.00000001
X        2.39295000      29.51305000      11.96475000      -0.00000020
X        0.79765000      31.10835000      11.96475000      -0.00000020
X        2.39295000      31.10835000      11.96475000      -0.00000020
Ta       0.00000000      28.71540000      12.76240000      -0.00000110
W        1.59530000      30.31070000      14.35770000      -0.00002324
X        0.79765000      29.51305000      13.56005000      -0.00000531
X        2.39295000      29.51305000      13.56005000      -0.00000531
X        0.79765000      31.10835000      13.56005000      -0.00000531
X        0.79765000      29.51305000      15.15535000      -0.00009187
X        2.39295000      31.10835000      13.56005000      -0.00000531
X        2.39295000      29.51305000      15.15535000      -0.00009187
X        0.79765000      31.10835000      15.15535000      -0.00009187
X        2.39295000      31.10835000      15.15535000      -0.00009187
W        0.00000000      28.71540000      15.95300000      -0.00032793
W        1.59530000      30.31070000      17.54830000      -0.00307912
X        0.79765000      29.51305000      16.75065000      -0.00105733
X        2.39295000      29.51305000      16.75065000      -0.00105733
X        0.79765000      31.10835000      16.75065000      -0.00105733
X        0.79765000      29.51305000      18.34595000      -0.00809897
X        2.39295000      31.10835000      16.75065000      -0.00105733
X        2.39295000      29.51305000      18.34595000      -0.00809897
X        0.79765000      31.10835000      18.34595000      -0.00809897
X        2.39295000      31.10835000      18.34595000      -0.00809897
W        0.00000000      28.71540000      19.14360000      -0.01924076
W        1.59530000      30.31070000      20.73890000      -0.08001555
X        0.79765000      29.51305000      19.94125000      -0.04128609
X        2.39295000      29.51305000      19.94125000      -0.04128609
X        0.79765000      31.10835000      19.94125000      -0.04128609
X        0.79765000      29.51305000      21.53655000      -0.14006646
X        2.39295000      31.10835000      19.94125000      -0.04128609
X        2.39295000      29.51305000      21.53655000      -0.14006646
X        0.79765000      31.10835000      21.53655000      -0.14006646
X        2.39295000      31.10835000      21.53655000      -0.14006646
Ta       0.00000000      28.71540000      22.33420000      -0.22145376
W        1.59530000      30.31070000      23.92950000      -0.40789490
X        0.79765000      29.51305000      23.13185000      -0.31624313
X        2.39295000      29.51305000      23.13185000      -0.31624313
X        0.79765000      31.10835000      23.13185000      -0.31624313
X        0.79765000      29.51305000      24.72715000      -0.47518702
X        2.39295000      31.10835000      23.13185000      -0.31624313
X        2.39295000      29.51305000      24.72715000      -0.47518702
X        0.79765000      31.10835000      24.72715000      -0.47518702
X        2.39295000      31.10835000      24.72715000      -0.47518702
W        0.00000000      28.71540000      25.52480000      -0.50000000
W        1.59530000      30.31070000      27.12010000      -0.40789490
X        0.79765000      29.51305000      26.32245000      -0.47518702
X        2.39295000      29.51305000      26.32245000      -0.47518702
X        0.79765000      31.10835000      26.32245000      -0.47518702
X        0.79765000      29.51305000      27.91775000      -0.31624313
X        2.39295000      31.10835000      26.32245000      -0.47518702
X        2.39295000      29.51305000      27.91775000      -0.31624313
X        0.79765000      31.10835000      27.91775000      -0.31624313
X        2.39295000      31.10835000      27.91775000      -0.31624313
W        0.00000000      28.71540000      28.71540000      -0.22145376
W        1.59530000      30.31070000      30.31070000      -0.08001555
X        0.79765000      29.51305000      29.51305000      -0.14006646
X        2.39295000      29.51305000      29.51305000      -0.14006646
X        0.79765000      31.10835000      29.51305000      -0.14006646
X        0.79765000      29.51305000      31.10835000      -0.04128609
X        2.39295000      31.10835000      29.51305000      -0.14006646
X        2.39295000      29.51305000      31.10835000      -0.04128609
X        0.79765000      31.10835000      31.10835000      -0.04128609
X        2.39295000      31.10835000      31.10835000      -0.04128609
W        0.00000000      28.71540000      31.90600000      -0.01924076
W        1.59530000      30.31070000      33.50130000      -0.00307912
X        0.79765000      29.51305000      32.70365000      -0.00809897
X        2.39295000      29.51305000      32.70365000      -0.00809897
X        0.79765000      31.10835000      32.70365000      -0.00809897
X        0.79765000      29.51305000      34.29895000      -0.00105733
X        2.39295000      31.10835000      32.70365000      -0.00809897
X        2.39295000      29.51305000      34.29895000      -0.00105733
X        0.79765000      31.10835000      34.29895000      -0.00105733
X        2.39295000      31.10835000      34.29895000      -0.00105733
Ta       0.00000000      28.71540000      35.09660000      -0.00032793
W        1.59530000      30.31070000      36.69190000      -0.00002324
X        0.79765000      29.51305000      35.89425000      -0.00009187
X        2.39295000      29.51305000      35.89425000      -0.00009187
X        0.79765000      31.10835000      35.89425000      -0.00009187
X        0.79765000      29.51305000      37.48955000      -0.00000531
X        2.39295000      31.10835000      35.89425000      -0.00009187
X        2.39295000      29.51305000      37.48955000      -0.00000531
X        0.79765000      31.10835000      37.48955000      -0.00000531
X        2.39295000      31.10835000      37.48955000      -0.00000531
W        0.00000000      28.71540000      38.28720000      -0.00000110
W        1.59530000      30.31070000      39.88250000      -0.00000003
X        0.79765000      29.51305000      39.08485000      -0.00000020
X        2.39295000      29.51305000      39.08485000      -0.00000020
X        0.79765000      31.10835000      39.08485000      -0.00000020
X        0.79765000      29.51305000      40.68015000      -0.00000001
X        2.39295000      31.10835000      39.08485000      -0.00000020
X        2.39295000      29.51305000      40.68015000      -0.00000001
X        0.79765000      31.10835000      40.68015000      -0.00000001
X        2.39295000      31.10835000      40.68015000      -0.00000001
W        0.00000000      28.71540000      41.47780000      -0.00000000
Ta       1.59530000      30.31070000      43.07310000      -0.00000000
X        0.79765000      29.51305000      42.27545000      -0.00000000
X        2.39295000      29.51305000      42.27545000      -0.00000000
X        0.79765000      31.10835000      42.27545000      -0.00000000
X        0.79765000      29.51305000      43.87075000      -0.00000000
X        2.39295000      31.10835000      42.27545000      -0.00000000
X        2.39295000      29.51305000      43.87075000      -0.00000000
X        0.79765000      31.10835000      43.87075000      -0.00000000
X        2.39295000      31.10835000      43.87075000      -0.00000000
W        0.00000000      28.71540000      44.66840000      -0.00000000
W        1.59530000      30.31070000      46.26370000      -0.00000000
X        0.79765000      29.51305000      45.46605000      -0.00000000
X        2.39295000      29.51305000      45.46605000      -0.00000000
X        0.79765000      31.10835000      45.46605000      -0.00000000
X        0.79765000      29.51305000      47.06135000      -0.00000000
X        2.39295000      31.10835000      45.46605000      -0.00000000
X        2.39295000      29.51305000      47.06135000      -0.00000000
X        0.79765000      31.10835000      47.06135000      -0.00000000
X        2.39295000      31.10835000      47.06135000      -0.00000000
Ta       0.00000000      28.71540000      47.85900000      -0.00000000
W        1.59530000      30.31070000      49.45430000      -0.00000000
X        0.79765000      29.51305000      48.65665000      -0.00000000
X        2.39295000      29.51305000      48.65665000      -0.00000000
X        0.79765000      31.10835000      48.65665000      -0.00000000
X        0.79765000      29.51305000      50.25195000      -0.00000000
X        2.39295000      31.10835000      48.65665000      -0.00000000
X        2.39295000      29.51305000      50.25195000      -0.00000000
X        0.79765000      31.10835000      50.25195000      -0.00000000
X        2.39295000      31.10835000      50.25195000      -0.00000000
W        0.00000000      31.90600000       0.00000000      -0.00000000
W        1.59530000      33.50130000       1.59530000      -0.00000000
X        0.79765000      32.70365000       0.79765000      -0.00000000
X        2.39295000      32.70365000       0.79765000      -0.00000000
X        0.79765000      34.29895000       0.79765000      -0.00000000
X        0.79765000      32.70365000       2.39295000      -0.00000000
X        2.39295000      34.29895000       0.79765000      -0.00000000
X        2.39295000      32.70365000       2.39295000      -0.00000000
X        0.79765000      34.29895000       2.39295000      -0.00000000
X        2.39295000      34.29895000       2.39295000      -0.00000000
W        0.00000000      31.90600000       3.19060000      -0.00000000
Ta       1.59530000      33.50130000       4.78590000      -0.00000000
X        0.79765000      32.70365000       3.98825000      -0.00000000
X        2.39295000      32.70365000       3.98825000      -0.00000000
X        0.79765000      34.29895000       3.98825000      -0.00000000
X        0.79765000      32.70365000       5.58355000      -0.00000000
X        2.39295000      34.29895000       3.98825000      -0.00000000
X        2.39295000      32.70365000       5.58355000      -0.00000000
X        0.79765000      34.29895000       5.58355000      -0.00000000
X        2.39295000      34.29895000       5.58355000      -0.00000000
W        0.00000000      31.90600000       6.38120000      -0.00000000
W        1.59530000      33.50130000       7.97650000      -0.00000000
X        0.79765000      32.70365000       7.17885000      -0.00000000
X        2.39295000      32.70365000       7.17885000      -0.00000000
X        0.79765000      34.29895000       7.17885000      -0.00000000
X        0.79765000      32.70365000       8.77415000      -0.00000000
X        2.39295000      34.29895000       7.17885000      -0.00000000
X        2.39295000      32.70365000       8.77415000      -0.00000000
X        0.79765000      34.29895000       8.77415000      -0.00000000
X        2.39295000      34.29895000       8.77415000      -0.00000000
Ta       0.00000000      31.90600000       9.57180000      -0.00000000
W        1.59530000      33.50130000      11.16710000      -0.00000003
X        0.79765000      32.70365000      10.36945000      -0.00000001
X        2.39295000      32.70365000      10.36945000      -0.00000001
X        0.79765000      34.29895000      10.36945000      -0.00000001
X        0.79765000      32.70365000      11.96475000      -0.00000020
X        2.39295000      34.29895000      10.36945000      -0.00000001
X        2.39295000      32.70365000      11.96475000      -0.00000020
X        0.79765000      34.29895000      11.96475000      -0.00000020
X        2.39295000      34.29895000      11.96475000      -0.00000020
W        0.00000000      31.90600000      12.76240000      -0.00000110
W        1.59530000      33.50130000      14.35770000      -0.00002324
X        0.79765000      32.70365000      13.56005000      -0.00000531
X        2.39295000      32.70365000      13.56005000      -0.00000531
X        0.79765000      34.29895000      13.56005000      -0.00000531
X        0.79765000      32.70365000      15.15535000      -0.00009187
X        2.39295000      34.29895000      13.56005000      -0.00000531
X        2.39295000      32.70365000      15.15535000      -0.00009187
X        0.79765000      34.29895000      15.15535000      -0.00009187
X        2.39295000      34.29895000      15.15535000      -0.00009187
W        0.00000000      31.90600000      15.95300000      -0.00032793
Ta       1.59530000      33.50130000      17.54830000      -0.00307912
X        0.79765000      32.70365000      16.75065000      -0.00105733
X        2.39295000      32.70365000      16.75065000      -0.00105733
X        0.79765000      34.29895000      16.75065000      -0.00105733
X        0.79765000      32.70365000      18.34595000      -0.00809897
X        2.39295000      34.29895000      16.75065000      -0.00105733
X        2.39295000      32.70365000      18.34595000      -0.00809897
X        0.79765000      34.29895000      18.34595000      -0.00809897
X        2.39295000      34.29895000      18.34595000      -0.00809897
W        0.00000000      31.90600000      19.14360000      -0.01924076
Ta       1.59530000      33.50130000      20.73890000      -0.08001555
X        0.79765000      32.70365000      19.94125000      -0.04128609
X        2.39295000      32.70365000      19.94125000      -0.04128609
X        0.79765000      34.29895000      19.94125000      -0.04128609
X        0.79765000      32.70365000      21.53655000      -0.14006646
X        2.39295000      34.29895000      19.94125000      -0.04128609
X        2.39295000      32.70365000      21.53655000      -0.14006646
X        0.79765000      34.29895000      21.53655000      -0.14006646
X        2.39295000      34.29895000      21.53655000      -0.14006646
Ta       0.00000000      31.90600000      22.33420000      -0.22145376
W        1.59530000      33.50130000      23.92950000      -0.40789490
X        0.79765000      32.70365000      23.13185000      -0.31624313
X        2.39295000      32.70365000      23.13185000      -0.31624313
X        0.79765000      34.29895000      23.13185000      -0.31624313
X        0.79765000      32.70365000      24.72715000      -0.47518702
X        2.39295000      34.29895000      23.13185000      -0.31624313
X        2.39295000      32.70365000      24.72715000      -0.47518702
X        0.79765000      34.29895000      24.72715000      -0.47518702
X        2.39295000      34.29895000      24.72715000      -0.47518702
W        0.00000000      31.90600000      25.52480000      -0.50000000
W        1.59530000      33.50130000      27.12010000      -0.40789490
X        0.79765000      32.70365000      26.32245000      -0.47518702
X        2.39295000      32.70365000      26.32245000      -0.47518702
X        0.79765000      34.29895000      26.32245000      -0.47518702
X        0.79765000      32.70365000      27.91775000      -0.31624313
X        2.39295000      34.29895000      26.32245000      -0.47518702
X        2.39295000      32.70365000      27.91775000      -0.31624313
X        0.79765000      34.29895000      27.91775000      -0.31624313
X        2.39295000      34.29895000      27.91775000      -0.31624313
W        0.00000000      31.90600000      28.71540000      -0.22145376
W        1.59530000      33.50130000      30.31070000      -0.08001555
X        0.79765000      32.70365000      29.51305000      -0.14006646
X        2.39295000      32.70365000      29.51305000      -0.14006646
X        0.79765000      34.29895000      29.51305000      -0.14006646
X        0.79765000      32.70365000      31.10835000      -0.04128609
X        2.39295000      34.29895000      29.51305000      -0.14006646
X        2.39295000      32.70365000      31.10835000      -0.04128609
X        0.79765000      34.29895000      31.10835000      -0.04128609
X        2.39295000      34.29895000      31.10835000      -0.04128609
Ta       0.00000000      31.90600000      31.90600000      -0.01924076
W        1.59530000      33.50130000      33.50130000      -0.00307912
X        0.79765000      32.70365000      32.70365000      -0.00809897
X        2.39295000      32.70365000      32.70365000      -0.00809897
X        0.79765000      34.29895000      32.70365000      -0.00809897
X        0.79765000      32.70365000      34.29895000      -0.00105733
X        2.39295000      34.29895000      32.70365000      -0.00809897
X        2.39295000      32.70365000      34.29895000      -0.00105733
X        0.79765000      34.29895000      34.29895000      -0.00105733
X        2.39295000      34.29895000      34.29895000      -0.00105733
W        0.00000000      31.90600000      35.09660000      -0.00032793
W        1.59530000      33.50130000      36.69190000      -0.00002324
X        0.79765000      32.70365000      35.89425000      -0.00009187
X        2.39295000      32.70365000      35.89425000      -0.00009187
X        0.79765000      34.29895000      35.89425000      -0.00009187
X        0.79765000      32.70365000      37.48955000      -0.00000531
X        2.39295000      34.29895000      35.89425000      -0.00009187
X        2.39295000      32.70365000      37.48955000      -0.00000531
X        0.79765000      34.29895000      37.48955000      -0.00000531
X        2.39295000      34.29895000      37.48955000      -0.00000531
W        0.00000000      31.90600000      38.28720000      -0.00000110
Ta       1.59530000      33.50130000      39.88250000      -0.00000003
X        0.79765000      32.70365000      39.08485000      -0.00000020
X        2.39295000      32.70365000      39.08485000      -0.00000020
X        0.79765000      34.29895000      39.08485000      -0.00000020
X        0.79765000      32.70365000      40.68015000      -0.00000001
X        2.39295000      34.29895000      39.08485000      -0.00000020
X        2.39295000      32.70365000      40.68015000      -0.00000001
X        0.79765000      34.29895000      40.68015000      -0.00000001
X        2.39295000      34.29895000      40.68015000      -0.00000001
W        0.00000000      31.90600000      41.47780000      -0.00000000
W        1.59530000      33.50130000      43.07310000      -0.00000000
X        0.79765000      32.70365000      42.27545000      -0.00000000
X        2.39295000      32.70365000      42.27545000      -0.00000000
X        0.79765000      34.29895000      42.27545000      -0.00000000
X        0.79765000      32.70365000      43.87075000      -0.00000000
X        2.39295000      34.29895000      42.27545000      -0.00000000
X        2.39295000      32.70365000      43.87075000      -0.00000000
X        0.79765000      34.29895000      43.87075000      -0.00000000
X        2.39295000      34.29895000      43.87075000      -0.00000000
W        0.00000000      31.90600000      44.66840000      -0.00000000
W        1.59530000      33.50130000      46.26370000      -0.00000000
X        0.79765000      32.70365000      45.46605000      -0.00000000
X        2.39295000      32.70365000      45.46605000      -0.00000000
X        0.79765000      34.29895000      45.46605000      -0.00000000
X        0.79765000      32.70365000      47.06135000      -0.00000000
X        2.39295000      34.29895000      45.46605000      -0.00000000
X        2.39295000      32.70365000      47.06135000      -0.00000000
X        0.79765000      34.29895000      47.06135000      -0.00000000
X        2.39295000      34.29895000      47.06135000      -0.00000000
W        0.00000000      31.90600000      47.85900000      -0.00000000
Ta       1.59530000      33.50130000      49.45430000      -0.00000000
X        0.79765000      32.70365000      48.65665000      -0.00000000
X        2.39295000      32.70365000      48.65665000      -0.00000000
X        0.79765000      34.29895000      48.65665000      -0.00000000
X        0.79765000      32.70365000      50.25195000      -0.00000000
X        2.39295000      34.29895000      48.65665000      -0.00000000
X        2.39295000      32.70365000      50.25195000      -0.00000000
X        0.79765000      34.29895000      50.25195000      -0.00000000
X        2.39295000      34.29895000      50.25195000      -0.00000000
W        0.00000000      35.09660000       0.00000000      -0.00000000
W        1.59530000      36.69190000       1.59530000      -0.00000000
X        0.79765000      35.89425000       0.79765000      -0.00000000
X        2.39295000      35.89425000       0.79765000      -0.00000000
X        0.79765000      37.48955000       0.79765000      -0.00000000
X        0.79765000      35.89425000       2.39295000      -0.00000000
X        2.39295000      37.48955000       0.79765000      -0.00000000
X        2.39295000      35.89425000       2.39295000      -0.00000000
X        0.79765000      37.48955000       2.39295000      -0.00000000
X        2.39295000      37.48955000       2.39295000      -0.00000000
Ta       0.00000000      35.09660000       3.19060000      -0.00000000
W        1.59530000      36.69190000       4.78590000      -0.00000000
X        0.79765000      35.89425000       3.98825000      -0.00000000
X        2.39295000      35.89425000       3.98825000      -0.00000000
X        0.79765000      37.48955000       3.98825000      -0.00000000
X        0.79765000      35.89425000       5.58355000      -0.00000000
X        2.39295000      37.48955000       3.98825000      -0.00000000
X        2.39295000      35.89425000       5.58355000      -0.00000000
X        0.79765000      37.48955000       5.58355000      -0.00000000
X        2.39295000      37.48955000       5.58355000      -0.00000000
W        0.00000000      35.09660000       6.38120000      -0.00000000
W        1.59530000      36.69190000       7.97650000      -0.00000000
X        0.79765000      35.89425000       7.17885000      -0.00000000
X        2.39295000      35.89425000       7.17885000      -0.00000000
X        0.79765000      37.48955000       7.17885000      -0.00000000
X        0.79765000      35.89425000       8.77415000      -0.00000000
X        2.39295000      37.48955000       7.17885000      -0.00000000
X        2.39295000      35.89425000       8.77415000      -0.00000000
X        0.79765000      37.48955000       8.77415000      -0.00000000
X        2.39295000      37.48955000       8.77415000      -0.00000000
W        0.00000000      35.09660000       9.57180000      -0.00000000
W        1.59530000      36.69190000      11.16710000      -0.00000003
X        0.79765000      35.89425000      10.36945000      -0.00000001
X        2.39295000      35.89425000      10.36945000      -0.00000001
X        0.79765000      37.48955000      10.36945000      -0.00000001
X        0.79765000      35.89425000      11.96475000      -0.00000020
X        2.39295000      37.48955000      10.36945000      -0.00000001
X        2.39295000      35.89425000      11.96475000      -0.00000020
X        0.79765000      37.48955000      11.96475000      -0.00000020
X        2.39295000      37.48955000      11.96475000      -0.00000020
W        0.00000000      35.09660000      12.76240000      -0.00000110
W        1.59530000      36.69190000      14.35770000      -0.00002324
X        0.79765000      35.89425000      13.56005000      -0.00000531
X        2.39295000      35.89425000      13.56005000      -0.00000531
X        0.79765000      37.48955000      13.56005000      -0.00000531
X        0.79765000      35.89425000      15.15535000      -0.00009187
X        2.39295000      37.48955000      13.56005000      -0.00000531
X        2.39295000      35.89425000      15.15535000      -0.00009187
X        0.79765000      37.48955000      15.15535000      -0.00009187
X        2.39295000      37.48955000      15.15535000      -0.00009187
W        0.00000000      35.09660000      15.95300000      -0.00032793
W        1.59530000      36.69190000      17.54830000      -0.00307912
X        0.79765000      35.89425000      16.75065000      -0.00105733
X        2.39295000      35.89425000      16.75065000      -0.00105733
X        0.79765000      37.48955000      16.75065000      -0.00105733
X        0.79765000      35.89425000      18.34595000      -0.00809897
X        2.39295000      37.48955000      16.75065000      -0.00105733
X        2.39295000      35.89425000      18.34595000      -0.00809897
X        0.79765000      37.48955000      18.34595000      -0.00809897
X        2.39295000      37.48955000      18.34595000      -0.00809897
Ta       0.00000000      35.09660000      19.14360000      -0.01924076
Ta       1.59530000      36.69190000      20.73890000      -0.08001555
X        0.79765000      35.89425000      19.94125000      -0.04128609
X        2.39295000      35.89425000      19.94125000      -0.04128609
X        0.79765000      37.48955000      19.94125000      -0.04128609
X        0.79765000      35.89425000      21.53655000      -0.14006646
X        2.39295000      37.48955000      19.94125000      -0.04128609
X        2.39295000      35.89425000      21.53655000      -0.14006646
X        0.79765000      37.48955000      21.53655000      -0.14006646
X        2.39295000      37.48955000      21.53655000      -0.14006646
W        0.00000000      35.09660000      22.33420000      -0.22145376
Ta       1.59530000      36.69190000      23.92950000      -0.40789490
X        0.79765000      35.89425000      23.13185000      -0.31624313
X        2.39295000      35.89425000      23.13185000      -0.31624313
X        0.79765000      37.48955000      23.13185000      -0.31624313
X        0.79765000      35.89425000      24.72715000      -0.47518702
X        2.39295000      37.48955000      23.13185000      -0.31624313
X        2.39295000      35.89425000      24.72715000      -0.47518702
X        0.79765000      37.48955000      24.72715000      -0.47518702
X        2.39295000      37.48955000      24.72715000      -0.47518702
W        0.00000000      35.09660000      25.52480000      -0.50000000
Ta       1.59530000      36.69190000      27.12010000      -0.40789490
X        0.79765000      35.89425000      26.32245000      -0.47518702
X        2.39295000      35.89425000      26.32245000      -0.47518702
X        0.79765000      37.48955000      26.32245000      -0.47518702
X        0.79765000      35.89425000      27.91775000      -0.31624313
X        2.39295000      37.48955000      26.32245000      -0.47518702
X        2.39295000      35.89425000      27.91775000      -0.31624313
X        0.79765000      37.48955000      27.91775000      -0.31624313
X        2.39295000      37.48955000      27.91775000      -0.31624313
W        0.00000000      35.09660000      28.71540000      -0.22145376
W        1.59530000      36.69190000      30.31070000      -0.08001555
X        0.79765000      35.89425000      29.51305000      -0.14006646
X        2.39295000      35.89425000      29.51305000      -0.14006646
X        0.79765000      37.48955000      29.51305000      -0.14006646
X        0.79765000      35.89425000      31.10835000      -0.04128609
X        2.39295000      37.48955000      29.51305000      -0.14006646
X        2.39295000      35.89425000      31.10835000      -0.04128609
X        0.79765000      37.48955000      31.10835000      -0.04128609
X        2.39295000      37.48955000      31.10835000      -0.04128609
W        0.00000000      35.09660000      31.90600000      -0.01924076
W        1.59530000      36.69190000      33.50130000      -0.00307912
X        0.79765000      35.89425000      32.70365000      -0.00809897
X        2.39295000      35.89425000      32.70365000      -0.00809897
X        0.79765000      37.48955000      32.70365000      -0.00809897
X        0.79765000      35.89425000      34.29895000      -0.00105733
X        2.39295000      37.48955000      32.70365000      -0.00809897
X        2.39295000      35.89425000      34.29895000      -0.00105733
X        0.79765000      37.48955000      34.29895000      -0.00105733
X        2.39295000      37.48955000      34.29895000      -0.00105733
W        0.00000000      35.09660000      35.09660000      -0.00032793
W        1.59530000      36.69190000      36.69190000      -0.00002324
X        0.79765000      35.89425000      35.89425000      -0.00009187
X        2.39295000      35.89425000      35.89425000      -0.00009187
X        0.79765000      37.48955000      35.89425000      -0.00009187
X        0.79765000      35.89425000      37.48955000      -0.00000531
X        2.39295000      37.48955000      35.89425000      -0.00009187
X        2.39295000      35.89425000      37.48955000      -0.00000531
X        0.79765000      37.48955000      37.48955000      -0.00000531
X        2.39295000      37.48955000      37.48955000      -0.00000531
Ta       0.00000000      35.09660000      38.28720000      -0.00000110
W        1.59530000      36.69190000      39.88250000      -0.00000003
X        0.79765000      35.89425000      39.08485000      -0.00000020
X        2.39295000      35.89425000      39.08485000      -0.00000020
X        0.79765000      37.48955000      39.08485000      -0.00000020
X        0.79765000      35.89425000      40.68015000      -0.00000001
X        2.39295000      37.48955000      39.08485000      -0.00000020
X        2.39295000      35.89425000      40.68015000      -0.00000001
X        0.79765000      37.48955000      40.68015000      -0.00000001
X        2.39295000      37.48955000      40.68015000      -0.00000001
W        0.00000000      35.09660000      41.47780000      -0.00000000
W        1.59530000      36.69190000      43.07310000      -0.00000000
X        0.79765000      35.89425000      42.27545000      -0.00000000
X        2.39295000      35.89425000      42.27545000      -0.00000000
X        0.79765000      37.48955000      42.27545000      -0.00000000
X        0.79765000      35.89425000      43.87075000      -0.00000000
X        2.39295000      37.48955000      42.27545000      -0.00000000
X        2.39295000      35.89425000      43.87075000      -0.00000000
X        0.79765000      37.48955000      43.87075000      -0.00000000
X        2.39295000      37.48955000      43.87075000      -0.00000000
Ta       0.00000000      35.09660000      44.66840000      -0.00000000
Ta       1.59530000      36.69190000      46.26370000      -0.00000000
X        0.79765000      35.89425000      45.46605000      -0.00000000
X        2.39295000      35.89425000      45.46605000      -0.00000000
X        0.79765000      37.48955000      45.46605000      -0.00000000
X        0.79765000      35.89425000      47.06135000      -0.00000000
X        2.39295000      37.48955000      45.46605000      -0.00000000
X        2.39295000      35.89425000      47.06135000      -0.00000000
X        0.79765000      37.48955000      47.06135000      -0.00000000
X        2.39295000      37.48955000      47.06135000      -0.00000000
W        0.00000000      35.09660000      47.85900000      -0.00000000
Ta       1.59530000      36.69190000      49.45430000      -0.00000000
X        0.79765000      35.89425000      48.65665000      -0.00000000
X        2.39295000      35.89425000      48.65665000      -0.00000000
X        0.79765000      37.48955000      48.65665000      -0.00000000
X        0.79765000      35.89425000      50.25195000      -0.00000000
X        2.39295000      37.48955000      48.65665000      -0.00000000
X        2.39295000      35.89425000      50.25195000      -0.00000000
X        0.79765000      37.48955000      50.25195000      -0.00000000
X        2.39295000      37.48955000      50.25195000      -0.00000000
W        0.00000000      38.28720000       0.00000000      -0.00000000
W        1.59530000      39.88250000       1.59530000      -0.00000000
X        0.79765000      39.08485000       0.79765000      -0.00000000
X        2.39295000      39.08485000       0.79765000      -0.00000000
X        0.79765000      40.68015000       0.79765000      -0.00000000
X        0.79765000      39.08485000       2.39295000      -0.00000000
X        2.39295000      40.68015000       0.79765000      -0.00000000
X        2.39295000      39.08485000       2.39295000      -0.00000000
X        0.79765000      40.68015000       2.39295000      -0.00000000
X        2.39295000      40.68015000       2.39295000      -0.00000000
W        0.00000000      38.28720000       3.19060000      -0.00000000
W        1.59530000      39.88250000       4.78590000      -0.00000000
X        0.79765000      39.08485000       3.98825000      -0.00000000
X        2.39295000      39.08485000       3.98825000      -0.00000000
X        0.79765000      40.68015000       3.98825000      -0.00000000
X        0.79765000      39.08485000       5.58355000      -0.00000000
X        2.39295000      40.68015000       3.98825000      -0.00000000
X        2.39295000      39.08485000       5.58355000      -0.00000000
X        0.79765000      40.68015000       5.58355000      -0.00000000
X        2.39295000      40.68015000       5.58355000      -0.00000000
W        0.00000000      38.28720000       6.38120000      -0.00000000
W        1.59530000      39.88250000       7.97650000      -0.00000000
X        0.79765000      39.08485000       7.17885000      -0.00000000
X        2.39295000      39.08485000       7.17885000      -0.00000000
X        0.79765000      40.68015000       7.17885000      -0.00000000
X        0.79765000      39.08485000       8.77415000      -0.00000000
X        2.39295000      40.68015000       7.17885000      -0.00000000
X        2.39295000      39.08485000       8.77415000      -0.00000000
X        0.79765000      40.68015000       8.77415000      -0.00000000
X        2.39295000      40.68015000       8.77415000      -0.00000000
W        0.00000000      38.28720000       9.57180000      -0.00000000
W        1.59530000      39.88250000      11.16710000      -0.00000003
X        0.79765000      39.08485000      10.36945000      -0.00000001
X        2.39295000      39.08485000      10.36945000      -0.00000001
X        0.79765000      40.68015000      10.36945000      -0.00000001
X        0.79765000      39.08485000      11.96475000      -0.00000020
X        2.39295000      40.68015000      10.36945000      -0.00000001
X        2.39295000      39.08485000      11.96475000      -0.00000020
X        0.79765000      40.68015000      11.96475000      -0.00000020
X        2.39295000      40.68015000      11.96475000      -0.00000020
W        0.00000000      38.28720000      12.76240000      -0.00000110
W        1.59530000      39.88250000      14.35770000      -0.00002324
X        0.79765000      39.08485000      13.56005000      -0.00000531
X        2.39295000      39.08485000      13.56005000      -0.00000531
X        0.79765000      40.68015000      13.56005000      -0.00000531
X        0.79765000      39.08485000      15.15535000      -0.00009187
X        2.39295000      40.68015000      13.56005000      -0.00000531
X        2.39295000      39.08485000      15.15535000      -0.00009187
X        0.79765000      40.68015000      15.15535000      -0.00009187
X        2.39295000      40.68015000      15.15535000      -0.00009187
W        0.00000000      38.28720000      15.95300000      -0.00032793
Ta       1.59530000      39.88250000      17.54830000      -0.00307912
X        0.79765000      39.08485000      16.75065000      -0.00105733
X        2.39295000      39.08485000      16.75065000      -0.00105733
X        0.79765000      40.68015000      16.75065000      -0.00105733
X        0.79765000      39.08485000      18.34595000      -0.00809897
X        2.39295000      40.68015000      16.75065000      -0.00105733
X        2.39295000      39.08485000      18.34595000      -0.00809897
X        0.79765000      40.68015000      18.34595000      -0.00809897
X        2.39295000      40.68015000      18.34595000      -0.00809897
W        0.00000000      38.28720000      19.14360000      -0.01924076
Ta       1.59530000      39.88250000      20.73890000      -0.08001555
X        0.79765000      39.08485000      19.94125000      -0.04128609
X        2.39295000      39.08485000      19.94125000      -0.04128609
X        0.79765000      40.68015000      19.94125000      -0.04128609
X        0.79765000      39.08485000      21.53655000      -0.14006646
X        2.39295000      40.68015000      19.94125000      -0.04128609
X        2.39295000      39.08485000      21.53655000      -0.14006646
X        0.79765000      40.68015000      21.53655000      -0.14006646
X        2.39295000      40.68015000      21.53655000      -0.14006646
W        0.00000000      38.28720000      22.33420000      -0.22145376
W        1.59530000      39.88250000      23.92950000      -0.40789490
X        0.79765000      39.08485000      23.13185000      -0.31624313
X        2.39295000      39.08485000      23.13185000      -0.31624313
X        0.79765000      40.68015000      23.13185000      -0.31624313
X        0.79765000      39.08485000      24.72715000      -0.47518702
X        2.39295000      40.68015000      23.13185000      -0.31624313
X        2.39295000      39.08485000      24.72715000      -0.47518702
X        0.79765000      40.68015000      24.72715000      -0.47518702
X        2.39295000      40.68015000      24.72715000      -0.47518702
W        0.00000000      38.28720000      25.52480000      -0.50000000
W        1.59530000      39.88250000      27.12010000      -0.40789490
X        0.79765000      39.08485000      26.32245000      -0.47518702
X        2.39295000      39.08485000      26.32245000      -0.47518702
X        0.79765000      40.68015000      26.32245000      -0.47518702
X        0.79765000      39.08485000      27.91775000      -0.31624313
X        2.39295000      40.68015000      26.32245000      -0.47518702
X        2.39295000      39.08485000      27.91775000      -0.31624313
X        0.79765000      40.68015000      27.91775000      -0.31624313
X        2.39295000      40.68015000      27.91775000      -0.31624313
Ta       0.00000000      38.28720000      28.71540000      -0.22145376
Ta       1.59530000      39.88250000      30.31070000      -0.08001555
X        0.79765000      39.08485000      29.51305000      -0.14006646
X        2.39295000      39.08485000      29.51305000      -0.14006646
X        0.79765000      40.68015000      29.51305000      -0.14006646
X        0.79765000      39.08485000      31.10835000      -0.04128609
X        2.39295000      40.68015000      29.51305000      -0.14006646
X        2.39295000      39.08485000      31.10835000      -0.04128609
X        0.79765000      40.68015000      31.10835000      -0.04128609
X        2.39295000      40.68015000      31.10835000      -0.04128609
W        0.00000000      38.28720000      31.90600000      -0.01924076
W        1.59530000      39.88250000      33.50130000      -0.00307912
X        0.79765000      39.08485000      32.70365000      -0.00809897
X        2.39295000      39.08485000      32.70365000      -0.00809897
X        0.79765000      40.68015000      32.70365000      -0.00809897
X        0.79765000      39.08485000      34.29895000      -0.00105733
X        2.39295000      40.68015000      32.70365000      -0.00809897
X        2.39295000      39.08485000      34.29895000      -0.00105733
X        0.79765000      40.68015000      34.29895000      -0.00105733
X        2.39295000      40.68015000      34.29895000      -0.00105733
W        0.00000000      38.28720000      35.09660000      -0.00032793
W        1.59530000      39.88250000      36.69190000      -0.00002324
X        0.79765000      39.08485000      35.89425000      -0.00009187
X        2.39295000      39.08485000      35.89425000      -0.00009187
X        0.79765000      40.68015000      35.89425000      -0.00009187
X        0.79765000      39.08485000      37.48955000      -0.00000531
X        2.39295000      40.68015000      35.89425000      -0.00009187
X        2.39295000      39.08485000      37.48955000      -0.00000531
X        0.79765000      40.68015000      37.48955000      -0.00000531
X        2.39295000      40.68015000      37.48955000      -0.00000531
Ta       0.00000000      38.28720000      38.28720000      -0.00000110
W        1.59530000      39.88250000      39.88250000      -0.00000003
X        0.79765000      39.08485000      39.08485000      -0.00000020
X        2.39295000      39.08485000      39.08485000      -0.00000020
X        0.79765000      40.68015000      39.08485000      -0.00000020
X        0.79765000      39.08485000      40.68015000      -0.00000001
X        2.39295000      40.68015000      39.08485000      -0.00000020
X        2.39295000      39.08485000      40.68015000      -0.00000001
X        0.79765000      40.68015000      40.68015000      -0.00000001
X        2.39295000      40.68015000      40.68015000      -0.00000001
W        0.00000000      38.28720000      41.47780000      -0.00000000
W        1.59530000      39.88250000      43.07310000      -0.00000000
X        0.79765000      39.08485000      42.27545000      -0.00000000
X        2.39295000      39.08485000      42.27545000      -0.00000000
X        0.79765000      40.68015000      42.27545000      -0.00000000
X        0.79765000      39.08485000      43.87075000      -0.00000000
X        2.39295000      40.68015000      42.27545000      -0.00000000
X        2.39295000      39.08485000      43.87075000      -0.00000000
X        0.79765000      40.68015000      43.87075000      -0.00000000
X        2.39295000      40.68015000      43.87075000      -0.00000000
W        0.00000000      38.28720000      44.66840000      -0.00000000
W        1.59530000      39.88250000      46.26370000      -0.00000000
X        0.79765000      39.08485000      45.46605000      -0.00000000
X        2.39295000      39.08485000      45.46605000      -0.00000000
X        0.79765000      40.68015000      45.46605000      -0.00000000
X        0.79765000      39.08485000      47.06135000      -0.00000000
X        2.39295000      40.68015000      45.46605000      -0.00000000
X        2.39295000      39.08485000      47.06135000      -0.00000000
X        0.79765000      40.68015000      47.06135000      -0.00000000
X        2.39295000      40.68015000      47.06135000      -0.00000000
W        0.00000000      38.28720000      47.85900000      -0.00000000
W        1.59530000      39.88250000      49.45430000      -0.00000000
X        0.79765000      39.08485000      48.65665000      -0.00000000
X        2.39295000      39.08485000      48.65665000      -0.00000000
X        0.79765000      40.68015000      48.65665000      -0.00000000
X        0.79765000      39.08485000      50.25195000      -0.00000000
X        2.39295000      40.68015000      48.65665000      -0.00000000
X        2.39295000      39.08485000      50.25195000      -0.00000000
X        0.79765000      40.68015000      50.25195000      -0.00000000
X        2.39295000      40.68015000      50.25195000      -0.00000000
W        0.00000000      41.47780000       0.00000000      -0.00000000
W        1.59530000      43.07310000       1.59530000      -0.00000000
X        0.79765000      42.27545000       0.79765000      -0.00000000
X        2.39295000      42.27545000       0.79765000      -0.00000000
X        0.79765000      43.87075000       0.79765000      -0.00000000
X        0.79765000      42.27545000       2.39295000      -0.00000000
X        2.39295000      43.87075000       0.79765000      -0.00000000
X        2.39295000      42.27545000       2.39295000      -0.00000000
X        0.79765000      43.87075000       2.39295000      -0.00000000
X        2.39295000      43.87075000       2.39295000      -0.00000000
W        0.00000000      41.47780000       3.19060000      -0.00000000
W        1.59530000      43.07310000       4.78590000      -0.00000000
X        0.79765000      42.27545000       3.98825000      -0.00000000
X        2.39295000      42.27545000       3.98825000      -0.00000000
X        0.79765000      43.87075000       3.98825000      -0.00000000
X        0.79765000      42.27545000       5.58355000      -0.00000000
X        2.39295000      43.87075000       3.98825000      -0.00000000
X        2.39295000      42.27545000       5.58355000      -0.00000000
X        0.79765000      43.87075000       5.58355000      -0.00000000
X        2.39295000      43.87075000       5.58355000      -0.00000000
W        0.00000000      41.47780000       6.38120000      -0.00000000
W        1.59530000      43.07310000       7.97650000      -0.00000000
X        0.79765000      42.27545000       7.17885000      -0.00000000
X        2.39295000      42.27545000       7.17885000      -0.00000000
X        0.79765000      43.87075000       7.17885000      -0.00000000
X        0.79765000      42.27545000       8.77415000      -0.00000000
X        2.39295000      43.87075000       7.17885000      -0.00000000
X        2.39295000      42.27545000       8.77415000      -0.00000000
X        0.79765000      43.87075000       8.77415000      -0.00000000
X        2.39295000      43.87075000       8.77415000      -0.00000000
W        0.00000000      41.47780000       9.57180000      -0.00000000
Ta       1.59530000      43.07310000      11.16710000      -0.00000003
X        0.79765000      42.27545000      10.36945000      -0.00000001
X        2.39295000      42.27545000      10.36945000      -0.00000001
X        0.79765000      43.87075000      10.36945000      -0.00000001
X        0.79765000      42.27545000      11.96475000      -0.00000020
X        2.39295000      43.87075000      10.36945000      -0.00000001
X        2.39295000      42.27545000      11.96475000      -0.00000020
X        0.79765000      43.87075000      11.96475000      -0.00000020
X        2.39295000      43.87075000      11.96475000      -0.00000020
W        0.00000000      41.47780000      12.76240000      -0.00000110
W        1.59530000      43.07310000      14.35770000      -0.00002324
X        0.79765000      42.27545000      13.56005000      -0.00000531
X        2.39295000      42.27545000      13.56005000      -0.00000531
X        0.79765000      43.87075000      13.56005000      -0.00000531
X        0.79765000      42.27545000      15.15535000      -0.00009187
X        2.39295000      43.87075000      13.56005000      -0.00000531
X        2.39295000      42.27545000      15.15535000      -0.00009187
X        0.79765000      43.87075000      15.15535000      -0.00009187
X        2.39295000      43.87075000      15.15535000      -0.00009187
W        0.00000000      41.47780000      15.95300000      -0.00032793
W        1.59530000      43.07310000      17.54830000      -0.00307912
X        0.79765000      42.27545000      16.75065000      -0.00105733
X        2.39295000      42.27545000      16.75065000      -0.00105733
X        0.79765000      43.87075000      16.75065000      -0.00105733
X        0.79765000      42.27545000      18.34595000      -0.00809897
X        2.39295000      43.87075000      16.75065000      -0.00105733
X        2.39295000      42.27545000      18.34595000      -0.00809897
X        0.79765000      43.87075000      18.34595000      -0.00809897
X        2.39295000      43.87075000      18.34595000      -0.00809897
Ta       0.00000000      41.47780000      19.14360000      -0.01924076
W        1.59530000      43.07310000      20.73890000      -0.08001555
X        0.79765000      42.27545000      19.94125000      -0.04128609
X        2.39295000      42.27545000      19.94125000      -0.04128609
X        0.79765000      43.87075000      19.94125000      -0.04128609
X        0.79765000      42.27545000      21.53655000      -0.14006646
X        2.39295000      43.87075000      19.94125000      -0.04128609
X        2.39295000      42.27545000      21.53655000      -0.14006646
X        0.79765000      43.87075000      21.53655000      -0.14006646
X        2.39295000      43.87075000      21.53655000      -0.14006646
W        0.00000000      41.47780000      22.33420000      -0.22145376
W        1.59530000      43.07310000      23.92950000      -0.40789490
X        0.79765000      42.27545000      23.13185000      -0.31624313
X        2.39295000      42.27545000      23.13185000      -0.31624313
X        0.79765000      43.87075000      23.13185000      -0.31624313
X        0.79765000      42.27545000      24.72715000      -0.47518702
X        2.39295000      43.87075000      23.13185000      -0.31624313
X        2.39295000      42.27545000      24.72715000      -0.47518702
X        0.79765000      43.87075000      24.72715000      -0.47518702
X        2.39295000      43.87075000      24.72715000      -0.47518702
W        0.00000000      41.47780000      25.52480000      -0.50000000
W        1.59530000      43.07310000      27.12010000      -0.40789490
X        0.79765000      42.27545000      26.32245000      -0.47518702
X        2.39295000      42.27545000      26.32245000      -0.47518702
X        0.79765000      43.87075000      26.32245000      -0.47518702
X        0.79765000      42.27545000      27.91775000      -0.31624313
X        2.39295000      43.87075000      26.32245000      -0.47518702
X        2.39295000      42.27545000      27.91775000      -0.31624313
X        0.79765000      43.87075000      27.91775000      -0.31624313
X        2.39295000      43.87075000      27.91775000      -0.31624313
W        0.00000000      41.47780000      28.71540000      -0.22145376
W        1.59530000      43.07310000      30.31070000      -0.08001555
X        0.79765000      42.27545000      29.51305000      -0.14006646
X        2.39295000      42.27545000      29.51305000      -0.14006646
X        0.79765000      43.87075000      29.51305000      -0.14006646
X        0.79765000      42.27545000      31.10835000      -0.04128609
X        2.39295000      43.87075000      29.51305000      -0.14006646
X        2.39295000      42.27545000      31.10835000      -0.04128609
X        0.79765000      43.87075000      31.10835000      -0.04128609
X        2.39295000      43.87075000      31.10835000      -0.04128609
W        0.00000000      41.47780000      31.90600000      -0.01924076
W        1.59530000      43.07310000      33.50130000      -0.00307912
X        0.79765000      42.27545000      32.70365000      -0.00809897
X        2.39295000      42.27545000      32.70365000      -0.00809897
X        0.79765000      43.87075000      32.70365000      -0.00809897
X        0.79765000      42.27545000      34.29895000      -0.00105733
X        2.39295000      43.87075000      32.70365000      -0.00809897
X        2.39295000      42.27545000      34.29895000      -0.00105733
X        0.79765000      43.87075000      34.29895000      -0.00105733
X        2.39295000      43.87075000      34.29895000      -0.00105733
W        0.00000000      41.47780000      35.09660000      -0.00032793
W        1.59530000      43.07310000      36.69190000      -0.00002324
X        0.79765000      42.27545000      35.89425000      -0.00009187
X        2.39295000      42.27545000      35.89425000      -0.00009187
X        0.79765000      43.87075000      35.89425000      -0.00009187
X        0.79765000      42.27545000      37.48955000      -0.00000531
X        2.39295000      43.87075000      35.89425000      -0.00009187
X        2.39295000      42.27545000      37.48955000      -0.00000531
X        0.79765000      43.87075000      37.48955000      -0.00000531
X        2.39295000      43.87075000      37.48955000      -0.00000531
W        0.00000000      41.47780000      38.28720000      -0.00000110
Ta       1.59530000      43.07310000      39.88250000      -0.00000003
X        0.79765000      42.27545000      39.08485000      -0.00000020
X        2.39295000      42.27545000      39.08485000      -0.00000020
X        0.79765000      43.87075000      39.08485000      -0.00000020
X        0.79765000      42.27545000      40.68015000      -0.00000001
X        2.39295000      43.87075000      39.08485000      -0.00000020
X        2.39295000      42.27545000      40.68015000      -0.00000001
X        0.79765000      43.87075000      40.68015000      -0.00000001
X        2.39295000      43.87075000      40.68015000      -0.00000001
W        0.00000000      41.47780000      41.47780000      -0.00000000
W        1.59530000      43.07310000      43.07310000      -0.00000000
X        0.79765000      42.27545000      42.27545000      -0.00000000
X        2.39295000      42.27545000      42.27545000      -0.00000000
X        0.79765000      43.87075000      42.27545000      -0.00000000
X        0.79765000      42.27545000      43.87075000      -0.00000000
X        2.39295000      43.87075000      42.27545000      -0.00000000
X        2.39295000      42.27545000      43.87075000      -0.00000000
X        0.79765000      43.87075000      43.87075000      -0.00000000
X        2.39295000      43.87075000      43.87075000      -0.00000000
W        0.00000000      41.47780000      44.66840000      -0.00000000
W        1.59530000      43.07310000      46.26370000      -0.00000000
X        0.79765000      42.27545000      45.46605000      -0.00000000
X        2.39295000      42.27545000      45.46605000      -0.00000000
X        0.79765000      43.87075000      45.46605000      -0.00000000
X        0.79765000      42.27545000      47.06135000      -0.00000000
X        2.39295000      43.87075000      45.46605000      -0.00000000
X        2.39295000      42.27545000      47.06135000      -0.00000000
X        0.79765000      43.87075000      47.06135000      -0.00000000
X        2.39295000      43.87075000      47.06135000      -0.00000000
W        0.00000000      41.47780000      47.85900000      -0.00000000
W        1.59530000      43.07310000      49.45430000      -0.00000000
X        0.79765000      42.27545000      48.65665000      -0.00000000
X        2.39295000      42.27545000      48.65665000      -0.00000000
X        0.79765000      43.87075000      48.65665000      -0.00000000
X        0.79765000      42.27545000      50.25195000      -0.00000000
X        2.39295000      43.87075000      48.65665000      -0.00000000
X        2.39295000      42.27545000      50.25195000      -0.00000000
X        0.79765000      43.87075000      50.25195000      -0.00000000
X        2.39295000      43.87075000      50.25195000      -0.00000000
W        0.00000000      44.66840000       0.00000000      -0.00000000
Ta       1.59530000      46.26370000       1.59530000      -0.00000000
X        0.79765000      45.46605000       0.79765000      -0.00000000
X        2.39295000      45.46605000       0.79765000      -0.00000000
X        0.79765000      47.06135000       0.79765000      -0.00000000
X        0.79765000      45.46605000       2.39295000      -0.00000000
X        2.39295000      47.06135000       0.79765000      -0.00000000
X        2.39295000      45.46605000       2.39295000      -0.00000000
X        0.79765000      47.06135000       2.39295000      -0.00000000
X        2.39295000      47.06135000       2.39295000      -0.00000000
W        0.00000000      44.66840000       3.19060000      -0.00000000
W        1.59530000      46.26370000       4.78590000      -0.00000000
X        0.79765000      45.46605000       3.98825000      -0.00000000
X        2.39295000      45.46605000       3.98825000      -0.00000000
X        0.79765000      47.06135000       3.98825000      -0.00000000
X        0.79765000      45.46605000       5.58355000      -0.00000000
X        2.39295000      47.06135000       3.98825000      -0.00000000
X        2.39295000      45.46605000       5.58355000      -0.00000000
X        0.79765000      47.06135000       5.58355000      -0.00000000
X        2.39295000      47.06135000       5.58355000      -0.00000000
W        0.00000000      44.66840000       6.38120000      -0.00000000
W        1.59530000      46.26370000       7.97650000      -0.00000000
X        0.79765000      45.46605000       7.17885000      -0.00000000
X        2.39295000      45.46605000       7.17885000      -0.00000000
X        0.79765000      47.06135000       7.17885000      -0.00000000
X        0.79765000      45.46605000       8.77415000      -0.00000000
X        2.39295000      47.06135000       7.17885000      -0.00000000
X        2.39295000      45.46605000       8.77415000      -0.00000000
X        0.79765000      47.06135000       8.77415000      -0.00000000
X        2.39295000      47.06135000       8.77415000      -0.00000000
W        0.00000000      44.66840000       9.57180000      -0.00000000
W        1.59530000      46.26370000      11.16710000      -0.00000003
X        0.79765000      45.46605000      10.36945000      -0.00000001
X        2.39295000      45.46605000      10.36945000      -0.00000001
X        0.79765000      47.06135000      10.36945000      -0.00000001
X        0.79765000      45.46605000      11.96475000      -0.00000020
X        2.39295000      47.06135000      10.36945000      -0.00000001
X        2.39295000      45.46605000      11.96475000      -0.00000020
X        0.79765000      47.06135000      11.96475000      -0.00000020
X        2.39295000      47.06135000      11.96475000      -0.00000020
W        0.00000000      44.66840000      12.76240000      -0.00000110
W        1.59530000      46.26370000      14.35770000      -0.00002324
X        0.79765000      45.46605000      13.56005000      -0.00000531
X        2.39295000      45.46605000      13.56005000      -0.00000531
X        0.79765000      47.06135000      13.56005000      -0.00000531
X        0.79765000      45.46605000      15.15535000      -0.00009187
X        2.39295000      47.06135000      13.56005000      -0.00000531
X        2.39295000      45.46605000      15.15535000      -0.00009187
X        0.79765000      47.06135000      15.15535000      -0.00009187
X        2.39295000      47.06135000      15.15535000      -0.00009187
Ta       0.00000000      44.66840000      15.95300000      -0.00032793
W        1.59530000      46.26370000      17.54830000      -0.00307912
X        0.79765000      45.46605000      16.75065000      -0.00105733
X        2.39295000      45.46605000      16.75065000      -0.00105733
X        0.79765000      47.06135000      16.75065000      -0.00105733
X        0.79765000      45.46605000      18.34595000      -0.00809897
X        2.39295000      47.06135000      16.75065000      -0.00105733
X        2.39295000      45.46605000      18.34595000      -0.00809897
X        0.79765000      47.06135000      18.34595000      -0.00809897
X        2.39295000      47.06135000      18.34595000      -0.00809897
W        0.00000000      44.66840000      19.14360000      -0.01924076
Ta       1.59530000      46.26370000      20.73890000      -0.08001555
X        0.79765000      45.46605000      19.94125000      -0.04128609
X        2.39295000      45.46605000      19.94125000      -0.04128609
X        0.79765000      47.06135000      19.94125000      -0.04128609
X        0.79765000      45.46605000      21.53655000      -0.14006646
X        2.39295000      47.06135000      19.94125000      -0.04128609
X        2.39295000      45.46605000      21.53655000      -0.14006646
X        0.79765000      47.06135000      21.53655000      -0.14006646
X        2.39295000      47.06135000      21.53655000      -0.14006646
Ta       0.00000000      44.66840000      22.33420000      -0.22145376
W        1.59530000      46.26370000      23.92950000      -0.40789490
X        0.79765000      45.46605000      23.13185000      -0.31624313
X        2.39295000      45.46605000      23.13185000      -0.31624313
X        0.79765000      47.06135000      23.13185000      -0.31624313
X        0.79765000      45.46605000      24.72715000      -0.47518702
X        2.39295000      47.06135000      23.13185000      -0.31624313
X        2.39295000      45.46605000      24.72715000      -0.47518702
X        0.79765000      47.06135000      24.72715000      -0.47518702
X        2.39295000      47.06135000      24.72715000      -0.47518702
W        0.00000000      44.66840000      25.52480000      -0.50000000
W        1.59530000      46.26370000      27.12010000      -0.40789490
X        0.79765000      45.46605000      26.32245000      -0.47518702
X        2.39295000      45.46605000      26.32245000      -0.47518702
X        0.79765000      47.06135000      26.32245000      -0.47518702
X        0.79765000      45.46605000      27.91775000      -0.31624313
X        2.39295000      47.06135000      26.32245000      -0.47518702
X        2.39295000      45.46605000      27.91775000      -0.31624313
X        0.79765000      47.06135000      27.91775000      -0.31624313
X        2.39295000      47.06135000      27.91775000      -0.31624313
Ta       0.00000000      44.66840000      28.71540000      -0.22145376
Ta       1.59530000      46.26370000      30.31070000      -0.08001555
X        0.79765000      45.46605000      29.51305000      -0.14006646
X        2.39295000      45.46605000      29.51305000      -0.14006646
X        0.79765000      47.06135000      29.51305000      -0.14006646
X        0.79765000      45.46605000      31.10835000      -0.04128609
X        2.39295000      47.06135000      29.51305000      -0.14006646
X        2.39295000      45.46605000      31.10835000      -0.04128609
X        0.79765000      47.06135000      31.10835000      -0.04128609
X        2.39295000      47.06135000      31.10835000      -0.04128609
W        0.00000000      44.66840000      31.90600000      -0.01924076
W        1.59530000      46.26370000      33.50130000      -0.00307912
X        0.79765000      45.46605000      32.70365000      -0.00809897
X        2.39295000      45.46605000      32.70365000      -0.00809897
X        0.79765000      47.06135000      32.70365000      -0.00809897
X        0.79765000      45.46605000      34.29895000      -0.00105733
X        2.39295000      47.06135000      32.70365000      -0.00809897
X        2.39295000      45.46605000      34.29895000      -0.00105733
X        0.79765000      47.06135000      34.29895000      -0.00105733
X        2.39295000      47.06135000      34.29895000      -0.00105733
W        0.00000000      44.66840000      35.09660000      -0.00032793
Ta       1.59530000      46.26370000      36.69190000      -0.00002324
X        0.79765000      45.46605000      35.89425000      -0.00009187
X        2.39295000      45.46605000      35.89425000      -0.00009187
X        0.79765000      47.06135000      35.89425000      -0.00009187
X        0.79765000      45.46605000      37.48955000      -0.00000531
X        2.39295000      47.06135000      35.89425000      -0.00009187
X        2.39295000      45.46605000      37.48955000      -0.00000531
X        0.79765000      47.06135000      37.48955000      -0.00000531
X        2.39295000      47.06135000      37.48955000      -0.00000531
Ta       0.00000000      44.66840000      38.28720000      -0.00000110
W        1.59530000      46.26370000      39.88250000      -0.00000003
X        0.79765000      45.46605000      39.08485000      -0.00000020
X        2.39295000      45.46605000      39.08485000      -0.00000020
X        0.79765000      47.06135000      39.08485000      -0.00000020
X        0.79765000      45.46605000      40.68015000      -0.00000001
X        2.39295000      47.06135000      39.08485000      -0.00000020
X        2.39295000      45.46605000      40.68015000      -0.00000001
X        0.79765000      47.06135000      40.68015000      -0.00000001
X        2.39295000      47.06135000      40.68015000      -0.00000001
Ta       0.00000000      44.66840000      41.47780000      -0.00000000
W        1.59530000      46.26370000      43.07310000      -0.00000000
X        0.79765000      45.46605000      42.27545000      -0.00000000
X        2.39295000      45.46605000      42.27545000      -0.00000000
X        0.79765000      47.06135000      42.27545000      -0.00000000
X        0.79765000      45.46605000      43.87075000      -0.00000000
X        2.39295000      47.06135000      42.27545000      -0.00000000
X        2.39295000      45.46605000      43.87075000      -0.00000000
X        0.79765000      47.06135000      43.87075000      -0.00000000
X        2.39295000      47.06135000      43.87075000      -0.00000000
W        0.00000000      44.66840000      44.66840000      -0.00000000
W        1.59530000      46.26370000      46.26370000      -0.00000000
X        0.79765000      45.46605000      45.46605000      -0.00000000
X        2.39295000      45.46605000      45.46605000      -0.00000000
X        0.79765000      47.06135000      45.46605000      -0.00000000
X        0.79765000      45.46605000      47.06135000      -0.00000000
X        2.39295000      47.06135000      45.46605000      -0.00000000
X        2.39295000      45.46605000      47.06135000      -0.00000000
X        0.79765000      47.06135000      47.06135000      -0.00000000
X        2.39295000      47.06135000      47.06135000      -0.00000000
W        0.00000000      44.66840000      47.85900000      -0.00000000
W        1.59530000      46.26370000      49.45430000      -0.00000000
X        0.79765000      45.46605000      48.65665000      -0.00000000
X        2.39295000      45.46605000      48.65665000      -0.00000000
X        0.79765000      47.06135000      48.65665000      -0.00000000
X        0.79765000      45.46605000      50.25195000      -0.00000000
X        2.39295000      47.06135000      48.65665000      -0.00000000
X        2.39295000      45.46605000      50.25195000      -0.00000000
X        0.79765000      47.06135000      50.25195000      -0.00000000
X        2.39295000      47.06135000      50.25195000      -0.00000000
W        0.00000000      47.85900000       0.00000000      -0.00000000
W        1.59530000      49.45430000       1.59530000      -0.00000000
X        0.79765000      48.65665000       0.79765000      -0.00000000
X        2.39295000      48.65665000       0.79765000      -0.00000000
X        0.79765000      50.25195000       0.79765000      -0.00000000
X        0.79765000      48.65665000       2.39295000      -0.00000000
X        2.39295000      50.25195000       0.79765000      -0.00000000
X        2.39295000      48.65665000       2.39295000      -0.00000000
X        0.79765000      50.25195000       2.39295000      -0.00000000
X        2.39295000      50.25195000       2.39295000      -0.00000000
W        0.00000000      47.85900000       3.19060000      -0.00000000
W        1.59530000      49.45430000       4.78590000      -0.00000000
X        0.79765000      48.65665000       3.98825000      -0.00000000
X        2.39295000      48.65665000       3.98825000      -0.00000000
X        0.79765000      50.25195000       3.98825000      -0.00000000
X        0.79765000      48.65665000       5.58355000      -0.00000000
X        2.39295000      50.25195000       3.98825000      -0.00000000
X        2.39295000      48.65665000       5.58355000      -0.00000000
X        0.79765000      50.25195000       5.58355000      -0.00000000
X        2.39295000      50.25195000       5.58355000      -0.00000000
W        0.00000000      47.85900000       6.38120000      -0.00000000
W        1.59530000      49.45430000       7.97650000      -0.00000000
X        0.79765000      48.65665000       7.17885000      -0.00000000
X        2.39295000      48.65665000       7.17885000      -0.00000000
X        0.79765000      50.25195000       7.17885000      -0.00000000
X        0.79765000      48.65665000       8.77415000      -0.00000000
X        2.39295000      50.25195000       7.17885000      -0.00000000
X        2.39295000      48.65665000       8.77415000      -0.00000000
X        0.79765000      50.25195000       8.77415000      -0.00000000
X        2.39295000      50.25195000       8.77415000      -0.00000000
W        0.00000000      47.85900000       9.57180000      -0.00000000
W        1.59530000      49.45430000      11.16710000      -0.00000003
X        0.79765000      48.65665000      10.36945000      -0.00000001
X        2.39295000      48.65665000      10.36945000      -0.00000001
X        0.79765000      50.25195000      10.36945000      -0.00000001
X        0.79765000      48.65665000      11.96475000      -0.00000020
X        2.39295000      50.25195000      10.36945000      -0.00000001
X        2.39295000      48.65665000      11.96475000      -0.00000020
X        0.79765000      50.25195000      11.96475000      -0.00000020
X        2.39295000      50.25195000      11.96475000      -0.00000020
W        0.00000000      47.85900000      12.76240000      -0.00000110
W        1.59530000      49.45430000      14.35770000      -0.00002324
X        0.79765000      48.65665000      13.56005000      -0.00000531
X        2.39295000      48.65665000      13.56005000      -0.00000531
X        0.79765000      50.25195000      13.56005000      -0.00000531
X        0.79765000      48.65665000      15.15535000      -0.00009187
X        2.39295000      50.25195000      13.56005000      -0.00000531
X        2.39295000      48.65665000      15.15535000      -0.00009187
X        0.79765000      50.25195000      15.15535000      -0.00009187
X        2.39295000      50.25195000      15.15535000      -0.00009187
W        0.00000000      47.85900000      15.95300000      -0.00032793
W        1.59530000      49.45430000      17.54830000      -0.00307912
X        0.79765000      48.65665000      16.75065000      -0.00105733
X        2.39295000      48.65665000      16.75065000      -0.00105733
X        0.79765000      50.25195000      16.75065000      -0.00105733
X        0.79765000      48.65665000      18.34595000      -0.00809897
X        2.39295000      50.25195000      16.75065000      -0.00105733
X        2.39295000      48.65665000      18.34595000      -0.00809897
X        0.79765000      50.25195000      18.34595000      -0.00809897
X        2.39295000      50.25195000      18.34595000      -0.00809897
W        0.00000000      47.85900000      19.14360000      -0.01924076
W        1.59530000      49.45430000      20.73890000      -0.08001555
X        0.79765000      48.65665000      19.94125000      -0.04128609
X        2.39295000      48.65665000      19.94125000      -0.04128609
X        0.79765000      50.25195000      19.94125000      -0.04128609
X        0.79765000      48.65665000      21.53655000      -0.14006646
X        2.39295000      50.25195000      19.94125000      -0.04128609
X        2.39295000      48.65665000      21.53655000      -0.14006646
X        0.79765000      50.25195000      21.53655000      -0.14006646
X        2.39295000      50.25195000      21.53655000      -0.14006646
W        0.00000000      47.85900000      22.33420000      -0.22145376
W        1.59530000      49.45430000      23.92950000      -0.40789490
X        0.79765000      48.65665000      23.13185000      -0.31624313
X        2.39295000      48.65665000      23.13185000      -0.31624313
X        0.79765000      50.25195000      23.13185000      -0.31624313
X        0.79765000      48.65665000      24.72715000      -0.47518702
X        2.39295000      50.25195000      23.13185000      -0.31624313
X        2.39295000      48.65665000      24.72715000      -0.47518702
X        0.79765000      50.25195000      24.72715000      -0.47518702
X        2.39295000      50.25195000      24.72715000      -0.47518702
W        0.00000000      47.85900000      25.52480000      -0.50000000
W        1.59530000      49.45430000      27.12010000      -0.40789490
X        0.79765000      48.65665000      26.32245000      -0.47518702
X        2.39295000      48.65665000      26.32245000      -0.47518702
X        0.79765000      50.25195000      26.32245000      -0.47518702
X        0.79765000      48.65665000      27.91775000      -0.31624313
X        2.39295000      50.25195000      26.32245000      -0.47518702
X        2.39295000      48.65665000      27.91775000      -0.31624313
X        0.79765000      50.25195000      27.91775000      -0.31624313
X        2.39295000      50.25195000      27.91775000      -0.31624313
W        0.00000000      47.85900000      28.71540000      -0.22145376
W        1.59530000      49.45430000      30.31070000      -0.08001555
X        0.79765000      48.65665000      29.51305000      -0.14006646
X        2.39295000      48.65665000      29.51305000      -0.14006646
X        0.79765000      50.25195000      29.51305000      -0.14006646
X        0.79765000      48.65665000      31.10835000      -0.04128609
X        2.39295000      50.25195000      29.51305000      -0.14006646
X        2.39295000      48.65665000      31.10835000      -0.04128609
X        0.79765000      50.25195000      31.10835000      -0.04128609
X        2.39295000      50.25195000      31.10835000      -0.04128609
Ta       0.00000000      47.85900000      31.90600000      -0.01924076
W        1.59530000      49.45430000      33.50130000      -0.00307912
X        0.79765000      48.65665000      32.70365000      -0.00809897
X        2.39295000      48.65665000      32.70365000      -0.00809897
X        0.79765000      50.25195000      32.70365000      -0.00809897
X        0.79765000      48.65665000      34.29895000      -0.00105733
X        2.39295000      50.25195000      32.70365000      -0.00809897
X        2.39295000      48.65665000      34.29895000      -0.00105733
X        0.79765000      50.25195000      34.29895000      -0.00105733
X        2.39295000      50.25195000      34.29895000      -0.00105733
W        0.00000000      47.85900000      35.09660000      -0.00032793
Ta       1.59530000      49.45430000      36.69190000      -0.00002324
X        0.79765000      48.65665000      35.89425000      -0.00009187
X        2.39295000      48.65665000      35.89425000      -0.00009187
X        0.79765000      50.25195000      35.89425000      -0.00009187
X        0.79765000      48.65665000      37.48955000      -0.00000531
X        2.39295000      50.25195000      35.89425000      -0.00009187
X        2.39295000      48.65665000      37.48955000      -0.00000531
X        0.79765000      50.25195000      37.48955000      -0.00000531
X        2.39295000      50.25195000      37.48955000      -0.00000531
Ta       0.00000000      47.85900000      38.28720000      -0.00000110
W        1.59530000      49.45430000      39.88250000      -0.00000003
X        0.79765000      48.65665000      39.08485000      -0.00000020
X        2.39295000      48.65665000      39.08485000      -0.00000020
X        0.79765000      50.25195000      39.08485000      -0.00000020
X        0.79765000      48.65665000      40.68015000      -0.00000001
X        2.39295000      50.25195000      39.08485000      -0.00000020
X        2.39295000      48.65665000      40.68015000      -0.00000001
X        0.79765000      50.25195000      40.68015000      -0.00000001
X        2.39295000      50.25195000      40.68015000      -0.00000001
Ta       0.00000000      47.85900000      41.47780000      -0.00000000
W        1.59530000      49.45430000      43.07310000      -0.00000000
X        0.79765000      48.65665000      42.27545000      -0.00000000
X        2.39295000      48.65665000      42.27545000      -0.00000000
X        0.79765000      50.25195000      42.27545000      -0.00000000
X        0.79765000      48.65665000      43.87075000      -0.00000000
X        2.39295000      50.25195000      42.27545000      -0.00000000
X        2.39295000      48.65665000      43.87075000      -0.00000000
X        0.79765000      50.25195000      43.87075000      -0.00000000
X        2.39295000      50.25195000      43.87075000      -0.00000000
W        0.00000000      47.85900000      44.66840000      -0.00000000
W        1.59530000      49.45430000      46.26370000      -0.00000000
X        0.79765000      48.65665000      45.46605000      -0.00000000
X        2.39295000      48.65665000      45.46605000      -0.00000000
X        0.79765000      50.25195000      45.46605000      -0.00000000
X        0.79765000      48.65665000      47.06135000      -0.00000000
X        2.39295000      50.25195000      45.46605000      -0.00000000
X        2.39295000      48.65665000      47.06135000      -0.00000000
X        0.79765000      50.25195000      47.06135000      -0.00000000
X        2.39295000      50.25195000      47.06135000      -0.00000000
W        0.00000000      47.85900000      47.85900000      -0.00000000
W        1.59530000      49.45430000      49.45430000      -0.00000000
X        0.79765000      48.65665000      48.65665000      -0.00000000
X        2.39295000      48.65665000      48.65665000      -0.00000000
X        0.79765000      50.25195000      48.65665000      -0.00000000
X        0.79765000      48.65665000      50.25195000      -0.00000000
X        2.39295000      50.25195000      48.65665000      -0.00000000
X        2.39295000      48.65665000      50.25195000      -0.00000000
X        0.79765000      50.25195000      50.25195000      -0.00000000
X        2.39295000      50.25195000      50.25195000      -0.00000000
W        3.19060000       0.00000000       0.00000000      -0.00000000
W        4.78590000       1.59530000       1.59530000      -0.00000000
X        3.98825000       0.79765000       0.79765000      -0.00000000
X        5.58355000       0.79765000       0.79765000      -0.00000000
X        3.98825000       2.39295000       0.79765000      -0.00000000
X        3.98825000       0.79765000       2.39295000      -0.00000000
X        5.58355000       2.39295000       0.79765000      -0.00000000
X        5.58355000       0.79765000       2.39295000      -0.00000000
X        3.98825000       2.39295000       2.39295000      -0.00000000
X        5.58355000       2.39295000       2.39295000      -0.00000000
W        3.19060000       0.00000000       3.19060000      -0.00000000
W        4.78590000       1.59530000       4.78590000      -0.00000000
X        3.98825000       0.79765000       3.98825000      -0.00000000
X        5.58355000       0.79765000       3.98825000      -0.00000000
X        3.98825000       2.39295000       3.98825000      -0.00000000
X        3.98825000       0.79765000       5.58355000      -0.00000000
X        5.58355000       2.39295000       3.98825000      -0.00000000
X        5.58355000       0.79765000       5.58355000      -0.00000000
X        3.98825000       2.39295000       5.58355000      -0.00000000
X        5.58355000       2.39295000       5.58355000      -0.00000000
W        3.19060000       0.00000000       6.38120000      -0.00000000
W        4.78590000       1.59530000       7.97650000      -0.00000000
X        3.98825000       0.79765000       7.17885000      -0.00000000
X        5.58355000       0.79765000       7.17885000      -0.00000000
X        3.98825000       2.39295000       7.17885000      -0.00000000
X        3.98825000       0.79765000       8.77415000      -0.00000000
X        5.58355000       2.39295000       7.17885000      -0.00000000
X        5.58355000       0.79765000       8.77415000      -0.00000000
X        3.98825000       2.39295000       8.77415000      -0.00000000
X        5.58355000       2.39295000       8.77415000      -0.00000000
W        3.19060000       0.00000000       9.57180000      -0.00000000
Ta       4.78590000       1.59530000      11.16710000      -0.00000003
X        3.98825000       0.79765000      10.36945000      -0.00000001
X        5.58355000       0.79765000      10.36945000      -0.00000001
X        3.98825000       2.39295000      10.36945000      -0.00000001
X        3.98825000       0.79765000      11.96475000      -0.00000020
X        5.58355000       2.39295000      10.36945000      -0.00000001
X        5.58355000       0.79765000      11.96475000      -0.00000020
X        3.98825000       2.39295000      11.96475000      -0.00000020
X        5.58355000       2.39295000      11.96475000      -0.00000020
W        3.19060000       0.00000000      12.76240000      -0.00000110
W        4.78590000       1.59530000      14.35770000      -0.00002324
X        3.98825000       0.79765000      13.56005000      -0.00000531
X        5.58355000       0.79765000      13.56005000      -0.00000531
X        3.98825000       2.39295000      13.56005000      -0.00000531
X        3.98825000       0.79765000      15.15535000      -0.00009187
X        5.58355000       2.39295000      13.56005000      -0.00000531
X        5.58355000       0.79765000      15.15535000      -0.00009187
X        3.98825000       2.39295000      15.15535000      -0.00009187
X        5.58355000       2.39295000      15.15535000      -0.00009187
Ta       3.19060000       0.00000000      15.95300000      -0.00032793
Ta       4.78590000       1.59530000      17.54830000      -0.00307912
X        3.98825000       0.79765000      16.75065000      -0.00105733
X        5.58355000       0.79765000      16.75065000      -0.00105733
X        3.98825000       2.39295000      16.75065000      -0.00105733
X        3.98825000       0.79765000      18.34595000      -0.00809897
X        5.58355000       2.39295000      16.75065000      -0.00105733
X        5.58355000       0.79765000      18.34595000      -0.00809897
X        3.98825000       2.39295000      18.34595000      -0.00809897
X        5.58355000       2.39295000      18.34595000      -0.00809897
W        3.19060000       0.00000000      19.14360000      -0.01924076
W        4.78590000       1.59530000      20.73890000      -0.08001555
X        3.98825000       0.79765000      19.94125000      -0.04128609
X        5.58355000       0.79765000      19.94125000      -0.04128609
X        3.98825000       2.39295000      19.94125000      -0.04128609
X        3.98825000       0.79765000      21.53655000      -0.14006646
X        5.58355000       2.39295000      19.94125000      -0.04128609
X        5.58355000       0.79765000      21.53655000      -0.14006646
X        3.98825000       2.39295000      21.53655000      -0.14006646
X        5.58355000       2.39295000      21.53655000      -0.14006646
W        3.19060000       0.00000000      22.33420000      -0.22145376
W        4.78590000       1.59530000      23.92950000      -0.40789490
X        3.98825000       0.79765000      23.13185000      -0.31624313
X        5.58355000       0.79765000      23.13185000      -0.31624313
X        3.98825000       2.39295000      23.13185000      -0.31624313
X        3.98825000       0.79765000      24.72715000      -0.47518702
X        5.58355000       2.39295000      23.13185000      -0.31624313
X        5.58355000       0.79765000      24.72715000      -0.47518702
X        3.98825000       2.39295000      24.72715000      -0.47518702
X        5.58355000       2.39295000      24.72715000      -0.47518702
W        3.19060000       0.00000000      25.52480000      -0.50000000
W        4.78590000       1.59530000      27.12010000      -0.40789490
X        3.98825000       0.79765000      26.32245000      -0.47518702
X        5.58355000       0.79765000      26.32245000      -0.47518702
X        3.98825000       2.39295000      26.32245000      -0.47518702
X        3.98825000       0.79765000      27.91775000      -0.31624313
X        5.58355000       2.39295000      26.32245000      -0.47518702
X        5.58355000       0.79765000      27.91775000      -0.31624313
X        3.98825000       2.39295000      27.91775000      -0.31624313
X        5.58355000       2.39295000      27.91775000      -0.31624313
W        3.19060000       0.00000000      28.71540000      -0.22145376
W        4.78590000       1.59530000      30.31070000      -0.08001555
X        3.98825000       0.79765000      29.51305000      -0.14006646
X        5.58355000       0.79765000      29.51305000      -0.14006646
X        3.98825000       2.39295000      29.51305000      -0.14006646
X        3.98825000       0.79765000      31.10835000      -0.04128609
X        5.58355000       2.39295000      29.51305000      -0.14006646
X        5.58355000       0.79765000      31.10835000      -0.04128609
X        3.98825000       2.39295000      31.10835000      -0.04128609
X        5.58355000       2.39295000      31.10835000      -0.04128609
W        3.19060000       0.00000000      31.90600000      -0.01924076
W        4.78590000       1.59530000      33.50130000      -0.00307912
X        3.98825000       0.79765000      32.70365000      -0.00809897
X        5.58355000       0.79765000      32.70365000      -0.00809897
X        3.98825000       2.39295000      32.70365000      -0.00809897
X        3.98825000       0.79765000      34.29895000      -0.00105733
X        5.58355000       2.39295000      32.70365000      -0.00809897
X        5.58355000       0.79765000      34.29895000      -0.00105733
X        3.98825000       2.39295000      34.29895000      -0.00105733
X        5.58355000       2.39295000      34.29895000      -0.00105733
Ta       3.19060000       0.00000000      35.09660000      -0.00032793
Ta       4.78590000       1.59530000      36.69190000      -0.00002324
X        3.98825000       0.79765000      35.89425000      -0.00009187
X        5.58355000       0.79765000      35.89425000      -0.00009187
X        3.98825000       2.39295000      35.89425000      -0.00009187
X        3.98825000       0.79765000      37.48955000      -0.00000531
X        5.58355000       2.39295000      35.89425000      -0.00009187
X        5.58355000       0.79765000      37.48955000      -0.00000531
X        3.98825000       2.39295000      37.48955000      -0.00000531
X        5.58355000       2.39295000      37.48955000      -0.00000531
W        3.19060000       0.00000000      38.28720000      -0.00000110
W        4.78590000       1.59530000      39.88250000      -0.00000003
X        3.98825000       0.79765000      39.08485000      -0.00000020
X        5.58355000       0.79765000      39.08485000      -0.00000020
X        3.98825000       2.39295000      39.08485000      -0.00000020
X        3.98825000       0.79765000      40.68015000      -0.00000001
X        5.58355000       2.39295000      39.08485000      -0.00000020
X        5.58355000       0.79765000      40.68015000      -0.00000001
X        3.98825000       2.39295000      40.68015000      -0.00000001
X        5.58355000       2.39295000      40.68015000      -0.00000001
Ta       3.19060000       0.00000000      41.47780000      -0.00000000
W        4.78590000       1.59530000      43.07310000      -0.00000000
X        3.98825000       0.79765000      42.27545000      -0.00000000
X        5.58355000       0.79765000      42.27545000      -0.00000000
X        3.98825000       2.39295000      42.27545000      -0.00000000
X        3.98825000       0.79765000      43.87075000      -0.00000000
X        5.58355000       2.39295000      42.27545000      -0.00000000
X        5.58355000       0.79765000      43.87075000      -0.00000000
X        3.98825000       2.39295000      43.87075000      -0.00000000
X        5.58355000       2.39295000      43.87075000      -0.00000000
W        3.19060000       0.00000000      44.66840000      -0.00000000
W        4.78590000       1.59530000      46.26370000      -0.00000000
X        3.98825000       0.79765000      45.46605000      -0.00000000
X        5.58355000       0.79765000      45.46605000      -0.00000000
X        3.98825000       2.39295000      45.46605000      -0.00000000
X        3.98825000       0.79765000      47.06135000      -0.00000000
X        5.58355000       2.39295000      45.46605000      -0.00000000
X        5.58355000       0.79765000      47.06135000      -0.00000000
X        3.98825000       2.39295000      47.06135000      -0.00000000
X        5.58355000       2.39295000      47.06135000      -0.00000000
W        3.19060000       0.00000000      47.85900000      -0.00000000
W        4.78590000       1.59530000      49.45430000      -0.00000000
X        3.98825000       0.79765000      48.65665000      -0.00000000
X        5.58355000       0.79765000      48.65665000      -0.00000000
X        3.98825000       2.39295000      48.65665000      -0.00000000
X        3.98825000       0.79765000      50.25195000      -0.00000000
X        5.58355000       2.39295000      48.65665000      -0.00000000
X        5.58355000       0.79765000      50.25195000      -0.00000000
X        3.98825000       2.39295000      50.25195000      -0.00000000
X        5.58355000       2.39295000      50.25195000      -0.00000000
W        3.19060000       3.19060000       0.00000000      -0.00000000
Ta       4.78590000       4.78590000       1.59530000      -0.00000000
X        3.98825000       3.98825000       0.79765000      -0.00000000
X        5.58355000       3.98825000       0.79765000      -0.00000000
X        3.98825000       5.58355000       0.79765000      -0.00000000
X        3.98825000       3.98825000       2.39295000      -0.00000000
X        5.58355000       5.58355000       0.79765000      -0.00000000
X        5.58355000       3.98825000       2.39295000      -0.00000000
X        3.98825000       5.58355000       2.39295000      -0.00000000
X        5.58355000       5.58355000       2.39295000      -0.00000000
W        3.19060000       3.19060000       3.19060000      -0.00000000
W        4.78590000       4.78590000       4.78590000      -0.00000000
X        3.98825000       3.98825000       3.98825000      -0.00000000
X        5.58355000       3.98825000       3.98825000      -0.00000000
X        3.98825000       5.58355000       3.98825000      -0.00000000
X        3.98825000       3.98825000       5.58355000      -0.00000000
X        5.58355000       5.58355000       3.98825000      -0.00000000
X        5.58355000       3.98825000       5.58355000      -0.00000000
X        3.98825000       5.58355000       5.58355000      -0.00000000
X        5.58355000       5.58355000       5.58355000      -0.00000000
W        3.19060000       3.19060000       6.38120000      -0.00000000
W        4.78590000       4.78590000       7.97650000      -0.00000000
X        3.98825000       3.98825000       7.17885000      -0.00000000
X        5.58355000       3.98825000       7.17885000      -0.00000000
X        3.98825000       5.58355000       7.17885000      -0.00000000
X        3.98825000       3.98825000       8.77415000      -0.00000000
X        5.58355000       5.58355000       7.17885000      -0.00000000
X        5.58355000       3.98825000       8.77415000      -0.00000000
X        3.98825000       5.58355000       8.77415000      -0.00000000
X        5.58355000       5.58355000       8.77415000      -0.00000000
W        3.19060000       3.19060000       9.57180000      -0.00000000
W        4.78590000       4.78590000      11.16710000      -0.00000003
X        3.98825000       3.98825000      10.36945000      -0.00000001
X        5.58355000       3.98825000      10.36945000      -0.00000001
X        3.98825000       5.58355000      10.36945000      -0.00000001
X        3.98825000       3.98825000      11.96475000      -0.00000020
X        5.58355000       5.58355000      10.36945000      -0.00000001
X        5.58355000       3.98825000      11.96475000      -0.00000020
X        3.98825000       5.58355000      11.96475000      -0.00000020
X        5.58355000       5.58355000      11.96475000      -0.00000020
W        3.19060000       3.19060000      12.76240000      -0.00000110
W        4.78590000       4.78590000      14.35770000      -0.00002324
X        3.98825000       3.98825000      13.56005000      -0.00000531
X        5.58355000       3.98825000      13.56005000      -0.00000531
X        3.98825000       5.58355000      13.56005000      -0.00000531
X        3.98825000       3.98825000      15.15535000      -0.00009187
X        5.58355000       5.58355000      13.56005000      -0.00000531
X        5.58355000       3.98825000      15.15535000      -0.00009187
X        3.98825000       5.58355000      15.15535000      -0.00009187
X        5.58355000       5.58355000      15.15535000      -0.00009187
W        3.19060000       3.19060000      15.95300000      -0.00032793
W        4.78590000       4.78590000      17.54830000      -0.00307912
X        3.98825000       3.98825000      16.75065000      -0.00105733
X        5.58355000       3.98825000      16.75065000      -0.00105733
X        3.98825000       5.58355000      16.75065000      -0.00105733
X        3.98825000       3.98825000      18.34595000      -0.00809897
X        5.58355000       5.58355000      16.75065000      -0.00105733
X        5.58355000       3.98825000      18.34595000      -0.00809897
X        3.98825000       5.58355000      18.34595000      -0.00809897
X        5.58355000       5.58355000      18.34595000      -0.00809897
W        3.19060000       3.19060000      19.14360000      -0.01924076
W        4.78590000       4.78590000      20.73890000      -0.08001555
X        3.98825000       3.98825000      19.94125000      -0.04128609
X        5.58355000       3.98825000      19.94125000      -0.04128609
X        3.98825000       5.58355000      19.94125000      -0.04128609
X        3.98825000       3.98825000      21.53655000      -0.14006646
X        5.58355000       5.58355000      19.94125000      -0.04128609
X        5.58355000       3.98825000      21.53655000      -0.14006646
X        3.98825000       5.58355000      21.53655000      -0.14006646
X        5.58355000       5.58355000      21.53655000      -0.14006646
W        3.19060000       3.19060000      22.33420000      -0.22145376
W        4.78590000       4.78590000      23.92950000      -0.40789490
X        3.98825000       3.98825000      23.13185000      -0.31624313
X        5.58355000       3.98825000      23.13185000      -0.31624313
X        3.98825000       5.58355000      23.13185000      -0.31624313
X        3.98825000       3.98825000      24.72715000      -0.47518702
X        5.58355000       5.58355000      23.13185000      -0.31624313
X        5.58355000       3.98825000      24.72715000      -0.47518702
X        3.98825000       5.58355000      24.72715000      -0.47518702
X        5.58355000       5.58355000      24.72715000      -0.47518702
W        3.19060000       3.19060000      25.52480000      -0.50000000
W        4.78590000       4.78590000      27.12010000      -0.40789490
X        3.98825000       3.98825000      26.32245000      -0.47518702
X        5.58355000       3.98825000      26.32245000      -0.47518702
X        3.98825000       5.58355000      26.32245000      -0.47518702
X        3.98825000       3.98825000      27.91775000      -0.31624313
X        5.58355000       5.58355000      26.32245000      -0.47518702
X        5.58355000       3.98825000      27.91775000      -0.31624313
X        3.98825000       5.58355000      27.91775000      -0.31624313
X        5.58355000       5.58355000      27.91775000      -0.31624313
Ta       3.19060000       3.19060000      28.71540000      -0.22145376
Ta       4.78590000       4.78590000      30.31070000      -0.08001555
X        3.98825000       3.98825000      29.51305000      -0.14006646
X        5.58355000       3.98825000      29.51305000      -0.14006646
X        3.98825000       5.58355000      29.51305000      -0.14006646
X        3.98825000       3.98825000      31.10835000      -0.04128609
X        5.58355000       5.58355000      29.51305000      -0.14006646
X        5.58355000       3.98825000      31.10835000      -0.04128609
X        3.98825000       5.58355000      31.10835000      -0.04128609
X        5.58355000       5.58355000      31.10835000      -0.04128609
Ta       3.19060000       3.19060000      31.90600000      -0.01924076
Ta       4.78590000       4.78590000      33.50130000      -0.00307912
X        3.98825000       3.98825000      32.70365000      -0.00809897
X        5.58355000       3.98825000      32.70365000      -0.00809897
X        3.98825000       5.58355000      32.70365000      -0.00809897
X        3.98825000       3.98825000      34.29895000      -0.00105733
X        5.58355000       5.58355000      32.70365000      -0.00809897
X        5.58355000       3.98825000      34.29895000      -0.00105733
X        3.98825000       5.58355000      34.29895000      -0.00105733
X        5.58355000       5.58355000      34.29895000      -0.00105733
Ta       3.19060000       3.19060000      35.09660000      -0.00032793
W        4.78590000       4.78590000      36.69190000      -0.00002324
X        3.98825000       3.98825000      35.89425000      -0.00009187
X        5.58355000       3.98825000      35.89425000      -0.00009187
X        3.98825000       5.58355000      35.89425000      -0.00009187
X        3.98825000       3.98825000      37.48955000      -0.00000531
X        5.58355000       5.58355000      35.89425000      -0.00009187
X        5.58355000       3.98825000      37.48955000      -0.00000531
X        3.98825000       5.58355000      37.48955000      -0.00000531
X        5.58355000       5.58355000      37.48955000      -0.00000531
Ta       3.19060000       3.19060000      38.28720000      -0.00000110
W        4.78590000       4.78590000      39.88250000      -0.00000003
X        3.98825000       3.98825000      39.08485000      -0.00000020
X        5.58355000       3.98825000      39.08485000      -0.00000020
X        3.98825000       5.58355000      39.08485000      -0.00000020
X        3.98825000       3.98825000      40.68015000      -0.00000001
X        5.58355000       5.58355000      39.08485000      -0.00000020
X        5.58355000       3.98825000      40.68015000      -0.00000001
X        3.98825000       5.58355000      40.68015000      -0.00000001
X        5.58355000       5.58355000      40.68015000      -0.00000001
W        3.19060000       3.19060000      41.47780000      -0.00000000
W        4.78590000       4.78590000      43.07310000      -0.00000000
X        3.98825000       3.98825000      42.27545000      -0.00000000
X        5.58355000       3.98825000      42.27545000      -0.00000000
X        3.98825000       5.58355000      42.27545000      -0.00000000
X        3.98825000       3.98825000      43.87075000      -0.00000000
X        5.58355000       5.58355000      42.27545000      -0.00000000
X        5.58355000       3.98825000      43.87075000      -0.00000000
X        3.98825000       5.58355000      43.87075000      -0.00000000
X        5.58355000       5.58355000      43.87075000      -0.00000000
W        3.19060000       3.19060000      44.66840000      -0.00000000
W        4.78590000       4.78590000      46.26370000      -0.00000000
X        3.98825000       3.98825000      45.46605000      -0.00000000
X        5.58355000       3.98825000      45.46605000      -0.00000000
X        3.98825000       5.58355000      45.46605000      -0.00000000
X        3.98825000       3.98825000      47.06135000      -0.00000000
X        5.58355000       5.58355000      45.46605000      -0.00000000
X        5.58355000       3.98825000      47.06135000      -0.00000000
X        3.98825000       5.58355000      47.06135000      -0.00000000
X        5.58355000       5.58355000      47.06135000      -0.00000000
W        3.19060000       3.19060000      47.85900000      -0.00000000
W        4.78590000       4.78590000      49.45430000      -0.00000000
X        3.98825000       3.98825000      48.65665000      -0.00000000
X        5.58355000       3.98825000      48.65665000      -0.00000000
X        3.98825000       5.58355000      48.65665000      -0.00000000
X        3.98825000       3.98825000      50.25195000      -0.00000000
X        5.58355000       5.58355000      48.65665000      -0.00000000
X        5.58355000       3.98825000      50.25195000      -0.00000000
X        3.98825000       5.58355000      50.25195000      -0.00000000
X        5.58355000       5.58355000      50.25195000      -0.00000000
W        3.19060000       6.38120000       0.00000000      -0.00000000
W        4.78590000       7.97650000       1.59530000      -0.00000000
X        3.98825000       7.17885000       0.79765000      -0.00000000
X        5.58355000       7.17885000       0.79765000      -0.00000000
X        3.98825000       8.77415000       0.79765000      -0.00000000
X        3.98825000       7.17885000       2.39295000      -0.00000000
X        5.58355000       8.77415000       0.79765000      -0.00000000
X        5.58355000       7.17885000       2.39295000      -0.00000000
X        3.98825000       8.77415000       2.39295000      -0.00000000
X        5.58355000       8.77415000       2.39295000      -0.00000000
W        3.19060000       6.38120000       3.19060000      -0.00000000
W        4.78590000       7.97650000       4.78590000      -0.00000000
X        3.98825000       7.17885000       3.98825000      -0.00000000
X        5.58355000       7.17885000       3.98825000      -0.00000000
X        3.98825000       8.77415000       3.98825000      -0.00000000
X        3.98825000       7.17885000       5.58355000      -0.00000000
X        5.58355000       8.77415000       3.98825000      -0.00000000
X        5.58355000       7.17885000       5.58355000      -0.00000000
X        3.98825000       8.77415000       5.58355000      -0.00000000
X        5.58355000       8.77415000       5.58355000      -0.00000000
W        3.19060000       6.38120000       6.38120000      -0.00000000
W        4.78590000       7.97650000       7.97650000      -0.00000000
X        3.98825000       7.17885000       7.17885000      -0.00000000
X        5.58355000       7.17885000       7.17885000      -0.00000000
X        3.98825000       8.77415000       7.17885000      -0.00000000
X        3.98825000       7.17885000       8.77415000      -0.00000000
X        5.58355000       8.77415000       7.17885000      -0.00000000
X        5.58355000       7.17885000       8.77415000      -0.00000000
X        3.98825000       8.77415000       8.77415000      -0.00000000
X        5.58355000       8.77415000       8.77415000      -0.00000000
Ta       3.19060000       6.38120000       9.57180000      -0.00000000
W        4.78590000       7.97650000      11.16710000      -0.00000003
X        3.98825000       7.17885000      10.36945000      -0.00000001
X        5.58355000       7.17885000      10.36945000      -0.00000001
X        3.98825000       8.77415000      10.36945000      -0.00000001
X        3.98825000       7.17885000      11.96475000      -0.00000020
X        5.58355000       8.77415000      10.36945000      -0.00000001
X        5.58355000       7.17885000      11.96475000      -0.00000020
X        3.98825000       8.77415000      11.96475000      -0.00000020
X        5.58355000       8.77415000      11.96475000      -0.00000020
W        3.19060000       6.38120000      12.76240000      -0.00000110
W        4.78590000       7.97650000      14.35770000      -0.00002324
X        3.98825000       7.17885000      13.56005000      -0.00000531
X        5.58355000       7.17885000      13.56005000      -0.00000531
X        3.98825000       8.77415000      13.56005000      -0.00000531
X        3.98825000       7.17885000      15.15535000      -0.00009187
X        5.58355000       8.77415000      13.56005000      -0.00000531
X        5.58355000       7.17885000      15.15535000      -0.00009187
X        3.98825000       8.77415000      15.15535000      -0.00009187
X        5.58355000       8.77415000      15.15535000      -0.00009187
W        3.19060000       6.38120000      15.95300000      -0.00032793
Ta       4.78590000       7.97650000      17.54830000      -0.00307912
X        3.98825000       7.17885000      16.75065000      -0.00105733
X        5.58355000       7.17885000      16.75065000      -0.00105733
X        3.98825000       8.77415000      16.75065000      -0.00105733
X        3.98825000       7.17885000      18.34595000      -0.00809897
X        5.58355000       8.77415000      16.75065000      -0.00105733
X        5.58355000       7.17885000      18.34595000      -0.00809897
X        3.98825000       8.77415000      18.34595000      -0.00809897
X        5.58355000       8.77415000      18.34595000      -0.00809897
Ta       3.19060000       6.38120000      19.14360000      -0.01924076
W        4.78590000       7.97650000      20.73890000      -0.08001555
X        3.98825000       7.17885000      19.94125000      -0.04128609
X        5.58355000       7.17885000      19.94125000      -0.04128609
X        3.98825000       8.77415000      19.94125000      -0.04128609
X        3.98825000       7.17885000      21.53655000      -0.14006646
X        5.58355000       8.77415000      19.94125000      -0.04128609
X        5.58355000       7.17885000      21.53655000      -0.14006646
X        3.98825000       8.77415000      21.53655000      -0.14006646
X        5.58355000       8.77415000      21.53655000      -0.14006646
W        3.19060000       6.38120000      22.33420000      -0.22145376
W        4.78590000       7.97650000      23.92950000      -0.40789490
X        3.98825000       7.17885000      23.13185000      -0.31624313
X        5.58355000       7.17885000      23.13185000      -0.31624313
X        3.98825000       8.77415000      23.13185000      -0.31624313
X        3.98825000       7.17885000      24.72715000      -0.47518702
X        5.58355000       8.77415000      23.13185000      -0.31624313
X        5.58355000       7.17885000      24.72715000      -0.47518702
X        3.98825000       8.77415000      24.72715000      -0.47518702
X        5.58355000       8.77415000      24.72715000      -0.47518702
W        3.19060000       6.38120000      25.52480000      -0.50000000
W        4.78590000       7.97650000      27.12010000      -0.40789490
X        3.98825000       7.17885000      26.32245000      -0.47518702
X        5.58355000       7.17885000      26.32245000      -0.47518702
X        3.98825000       8.77415000      26.32245000      -0.47518702
X        3.98825000       7.17885000      27.91775000      -0.31624313
X        5.58355000       8.77415000      26.32245000      -0.47518702
X        5.58355000       7.17885000      27.91775000      -0.31624313
X        3.98825000       8.77415000      27.91775000      -0.31624313
X        5.58355000       8.77415000      27.91775000      -0.31624313
W        3.19060000       6.38120000      28.71540000      -0.22145376
W        4.78590000       7.97650000      30.31070000      -0.08001555
X        3.98825000       7.17885000      29.51305000      -0.14006646
X        5.58355000       7.17885000      29.51305000      -0.14006646
X        3.98825000       8.77415000      29.51305000      -0.14006646
X        3.98825000       7.17885000      31.10835000      -0.04128609
X        5.58355000       8.77415000      29.51305000      -0.14006646
X        5.58355000       7.17885000      31.10835000      -0.04128609
X        3.98825000       8.77415000      31.10835000      -0.04128609
X        5.58355000       8.77415000      31.10835000      -0.04128609
W        3.19060000       6.38120000      31.90600000      -0.01924076
W        4.78590000       7.97650000      33.50130000      -0.00307912
X        3.98825000       7.17885000      32.70365000      -0.00809897
X        5.58355000       7.17885000      32.70365000      -0.00809897
X        3.98825000       8.77415000      32.70365000      -0.00809897
X        3.98825000       7.17885000      34.29895000      -0.00105733
X        5.58355000       8.77415000      32.70365000      -0.00809897
X        5.58355000       7.17885000      34.29895000      -0.00105733
X        3.98825000       8.77415000      34.29895000      -0.00105733
X        5.58355000       8.77415000      34.29895000      -0.00105733
W        3.19060000       6.38120000      35.09660000      -0.00032793
W        4.78590000       7.97650000      36.69190000      -0.00002324
X        3.98825000       7.17885000      35.89425000      -0.00009187
X        5.58355000       7.17885000      35.89425000      -0.00009187
X        3.98825000       8.77415000      35.89425000      -0.00009187
X        3.98825000       7.17885000      37.48955000      -0.00000531
X        5.58355000       8.77415000      35.89425000      -0.00009187
X        5.58355000       7.17885000      37.48955000      -0.00000531
X        3.98825000       8.77415000      37.48955000      -0.00000531
X        5.58355000       8.77415000      37.48955000      -0.00000531
Ta       3.19060000       6.38120000      38.28720000      -0.00000110
W        4.78590000       7.97650000      39.88250000      -0.00000003
X        3.98825000       7.17885000      39.08485000      -0.00000020
X        5.58355000       7.17885000      39.08485000      -0.00000020
X        3.98825000       8.77415000      39.08485000      -0.00000020
X        3.98825000       7.17885000      40.68015000      -0.00000001
X        5.58355000       8.77415000      39.08485000      -0.00000020
X        5.58355000       7.17885000      40.68015000      -0.00000001
X        3.98825000       8.77415000      40.68015000      -0.00000001
X        5.58355000       8.77415000      40.68015000      -0.00000001
W        3.19060000       6.38120000      41.47780000      -0.00000000
W        4.78590000       7.97650000      43.07310000      -0.00000000
X        3.98825000       7.17885000      42.27545000      -0.00000000
X        5.58355000       7.17885000      42.27545000      -0.00000000
X        3.98825000       8.77415000      42.27545000      -0.00000000
X        3.98825000       7.17885000      43.87075000      -0.00000000
X        5.58355000       8.77415000      42.27545000      -0.00000000
X        5.58355000       7.17885000      43.87075000      -0.00000000
X        3.98825000       8.77415000      43.87075000      -0.00000000
X        5.58355000       8.77415000      43.87075000      -0.00000000
W        3.19060000       6.38120000      44.66840000      -0.00000000
W        4.78590000       7.97650000      46.26370000      -0.00000000
X        3.98825000       7.17885000      45.46605000      -0.00000000
X        5.58355000       7.17885000      45.46605000      -0.00000000
X        3.98825000       8.77415000      45.46605000      -0.00000000
X        3.98825000       7.17885000      47.06135000      -0.00000000
X        5.58355000       8.77415000      45.46605000      -0.00000000
X        5.58355000       7.17885000      47.06135000      -0.00000000
X        3.98825000       8.77415000      47.06135000      -0.00000000
X        5.58355000       8.77415000      47.06135000      -0.00000000
Ta       3.19060000       6.38120000      47.85900000      -0.00000000
W        4.78590000       7.97650000      49.45430000      -0.00000000
X        3.98825000       7.17885000      48.65665000      -0.00000000
X        5.58355000       7.17885000      48.65665000      -0.00000000
X        3.98825000       8.77415000      48.65665000      -0.00000000
X        3.98825000       7.17885000      50.25195000      -0.00000000
X        5.58355000       8.77415000      48.65665000      -0.00000000
X        5.58355000       7.17885000      50.25195000      -0.00000000
X        3.98825000       8.77415000      50.25195000      -0.00000000
X        5.58355000       8.77415000      50.25195000      -0.00000000
Ta       3.19060000       9.57180000       0.00000000      -0.00000000
Ta       4.78590000      11.16710000       1.59530000      -0.00000000
X        3.98825000      10.36945000       0.79765000      -0.00000000
X        5.58355000      10.36945000       0.79765000      -0.00000000
X        3.98825000      11.96475000       0.79765000      -0.00000000
X        3.98825000      10.36945000       2.39295000      -0.00000000
X        5.58355000      11.96475000       0.79765000      -0.00000000
X        5.58355000      10.36945000       2.39295000      -0.00000000
X        3.98825000      11.96475000       2.39295000      -0.00000000
X        5.58355000      11.96475000       2.39295000      -0.00000000
W        3.19060000       9.57180000       3.19060000      -0.00000000
W        4.78590000      11.16710000       4.78590000      -0.00000000
X        3.98825000      10.36945000       3.98825000      -0.00000000
X        5.58355000      10.36945000       3.98825000      -0.00000000
X        3.98825000      11.96475000       3.98825000      -0.00000000
X        3.98825000      10.36945000       5.58355000      -0.00000000
X        5.58355000      11.96475000       3.98825000      -0.00000000
X        5.58355000      10.36945000       5.58355000      -0.00000000
X        3.98825000      11.96475000       5.58355000      -0.00000000
X        5.58355000      11.96475000       5.58355000      -0.00000000
Ta       3.19060000       9.57180000       6.38120000      -0.00000000
W        4.78590000      11.16710000       7.97650000      -0.00000000
X        3.98825000      10.36945000       7.17885000      -0.00000000
X        5.58355000      10.36945000       7.17885000      -0.00000000
X        3.98825000      11.96475000       7.17885000      -0.00000000
X        3.98825000      10.36945000       8.77415000      -0.00000000
X        5.58355000      11.96475000       7.17885000      -0.00000000
X        5.58355000      10.36945000       8.77415000      -0.00000000
X        3.98825000      11.96475000       8.77415000      -0.00000000
X        5.58355000      11.96475000       8.77415000      -0.00000000
W        3.19060000       9.57180000       9.57180000      -0.00000000
W        4.78590000      11.16710000      11.16710000      -0.00000003
X        3.98825000      10.36945000      10.36945000      -0.00000001
X        5.58355000      10.36945000      10.36945000      -0.00000001
X        3.98825000      11.96475000      10.36945000      -0.00000001
X        3.98825000      10.36945000      11.96475000      -0.00000020
X        5.58355000      11.96475000      10.36945000      -0.00000001
X        5.58355000      10.36945000      11.96475000      -0.00000020
X        3.98825000      11.96475000      11.96475000      -0.00000020
X        5.58355000      11.96475000      11.96475000      -0.00000020
W        3.19060000       9.57180000      12.76240000      -0.00000110
W        4.78590000      11.16710000      14.35770000      -0.00002324
X        3.98825000      10.36945000      13.56005000      -0.00000531
X        5.58355000      10.36945000      13.56005000      -0.00000531
X        3.98825000      11.96475000      13.56005000      -0.00000531
X        3.98825000      10.36945000      15.15535000      -0.00009187
X        5.58355000      11.96475000      13.56005000      -0.00000531
X        5.58355000      10.36945000      15.15535000      -0.00009187
X        3.98825000      11.96475000      15.15535000      -0.00009187
X        5.58355000      11.96475000      15.15535000      -0.00009187
Ta       3.19060000       9.57180000      15.95300000      -0.00032793
W        4.78590000      11.16710000      17.54830000      -0.00307912
X        3.98825000      10.36945000      16.75065000      -0.00105733
X        5.58355000      10.36945000      16.75065000      -0.00105733
X        3.98825000      11.96475000      16.75065000      -0.00105733
X        3.98825000      10.36945000      18.34595000      -0.00809897
X        5.58355000      11.96475000      16.75065000      -0.00105733
X        5.58355000      10.36945000      18.34595000      -0.00809897
X        3.98825000      11.96475000      18.34595000      -0.00809897
X        5.58355000      11.96475000      18.34595000      -0.00809897
W        3.19060000       9.57180000      19.14360000      -0.01924076
W        4.78590000      11.16710000      20.73890000      -0.08001555
X        3.98825000      10.36945000      19.94125000      -0.04128609
X        5.58355000      10.36945000      19.94125000      -0.04128609
X        3.98825000      11.96475000      19.94125000      -0.04128609
X        3.98825000      10.36945000      21.53655000      -0.14006646
X        5.58355000      11.96475000      19.94125000      -0.04128609
X        5.58355000      10.36945000      21.53655000      -0.14006646
X        3.98825000      11.96475000      21.53655000      -0.14006646
X        5.58355000      11.96475000      21.53655000      -0.14006646
Ta       3.19060000       9.57180000      22.33420000      -0.22145376
W        4.78590000      11.16710000      23.92950000      -0.40789490
X        3.98825000      10.36945000      23.13185000      -0.31624313
X        5.58355000      10.36945000      23.13185000      -0.31624313
X        3.98825000      11.96475000      23.13185000      -0.31624313
X        3.98825000      10.36945000      24.72715000      -0.47518702
X        5.58355000      11.96475000      23.13185000      -0.31624313
X        5.58355000      10.36945000      24.72715000      -0.47518702
X        3.98825000      11.96475000      24.72715000      -0.47518702
X        5.58355000      11.96475000      24.72715000      -0.47518702
W        3.19060000       9.57180000      25.52480000      -0.50000000
Ta       4.78590000      11.16710000      27.12010000      -0.40789490
X        3.98825000      10.36945000      26.32245000      -0.47518702
X        5.58355000      10.36945000      26.32245000      -0.47518702
X        3.98825000      11.96475000      26.32245000      -0.47518702
X        3.98825000      10.36945000      27.91775000      -0.31624313
X        5.58355000      11.96475000      26.32245000      -0.47518702
X        5.58355000      10.36945000      27.91775000      -0.31624313
X        3.98825000      11.96475000      27.91775000      -0.31624313
X        5.58355000      11.96475000      27.91775000      -0.31624313
W        3.19060000       9.57180000      28.71540000      -0.22145376
W        4.78590000      11.16710000      30.31070000      -0.08001555
X        3.98825000      10.36945000      29.51305000      -0.14006646
X        5.58355000      10.36945000      29.51305000      -0.14006646
X        3.98825000      11.96475000      29.51305000      -0.14006646
X        3.98825000      10.36945000      31.10835000      -0.04128609
X        5.58355000      11.96475000      29.51305000      -0.14006646
X        5.58355000      10.36945000      31.10835000      -0.04128609
X        3.98825000      11.96475000      31.10835000      -0.04128609
X        5.58355000      11.96475000      31.10835000      -0.04128609
W        3.19060000       9.57180000      31.90600000      -0.01924076
W        4.78590000      11.16710000      33.50130000      -0.00307912
X        3.98825000      10.36945000      32.70365000      -0.00809897
X        5.58355000      10.36945000      32.70365000      -0.00809897
X        3.98825000      11.96475000      32.70365000      -0.00809897
X        3.98825000      10.36945000      34.29895000      -0.00105733
X        5.58355000      11.96475000      32.70365000      -0.00809897
X        5.58355000      10.36945000      34.29895000      -0.00105733
X        3.98825000      11.96475000      34.29895000      -0.00105733
X        5.58355000      11.96475000      34.29895000      -0.00105733
W        3.19060000       9.57180000      35.09660000      -0.00032793
W        4.78590000      11.16710000      36.69190000      -0.00002324
X        3.98825000      10.36945000      35.89425000      -0.00009187
X        5.58355000      10.36945000      35.89425000      -0.00009187
X        3.98825000      11.96475000      35.89425000      -0.00009187
X        3.98825000      10.36945000      37.48955000      -0.00000531
X        5.58355000      11.96475000      35.89425000      -0.00009187
X        5.58355000      10.36945000      37.48955000      -0.00000531
X        3.98825000      11.96475000      37.48955000      -0.00000531
X        5.58355000      11.96475000      37.48955000      -0.00000531
Ta       3.19060000       9.57180000      38.28720000      -0.00000110
Ta       4.78590000      11.16710000      39.88250000      -0.00000003
X        3.98825000      10.36945000      39.08485000      -0.00000020
X        5.58355000      10.36945000      39.08485000      -0.00000020
X        3.98825000      11.96475000      39.08485000      -0.00000020
X        3.98825000      10.36945000      40.68015000      -0.00000001
X        5.58355000      11.96475000      39.08485000      -0.00000020
X        5.58355000      10.36945000      40.68015000      -0.00000001
X        3.98825000      11.96475000      40.68015000      -0.00000001
X        5.58355000      11.96475000      40.68015000      -0.00000001
W        3.19060000       9.57180000      41.47780000      -0.00000000
W        4.78590000      11.16710000      43.07310000      -0.00000000
X        3.98825000      10.36945000      42.27545000      -0.00000000
X        5.58355000      10.36945000      42.27545000      -0.00000000
X        3.98825000      11.96475000      42.27545000      -0.00000000
X        3.98825000      10.36945000      43.87075000      -0.00000000
X        5.58355000      11.96475000      42.27545000      -0.00000000
X        5.58355000      10.36945000      43.87075000      -0.00000000
X        3.98825000      11.96475000      43.87075000      -0.00000000
X        5.58355000      11.96475000      43.87075000      -0.00000000
W        3.19060000       9.57180000      44.66840000      -0.00000000
W        4.78590000      11.16710000      46.26370000      -0.00000000
X        3.98825000      10.36945000      45.46605000      -0.00000000
X        5.58355000      10.36945000      45.46605000      -0.00000000
X        3.98825000      11.96475000      45.46605000      -0.00000000
X        3.98825000      10.36945000      47.06135000      -0.00000000
X        5.58355000      11.96475000      45.46605000      -0.00000000
X        5.58355000      10.36945000      47.06135000      -0.00000000
X        3.98825000      11.96475000      47.06135000      -0.00000000
X        5.58355000      11.96475000      47.06135000      -0.00000000
W        3.19060000       9.57180000      47.85900000      -0.00000000
W        4.78590000      11.16710000      49.45430000      -0.00000000
X        3.98825000      10.36945000      48.65665000      -0.00000000
X        5.58355000      10.36945000      48.65665000      -0.00000000
X        3.98825000      11.96475000      48.65665000      -0.00000000
X        3.98825000      10.36945000      50.25195000      -0.00000000
X        5.58355000      11.96475000      48.65665000      -0.00000000
X        5.58355000      10.36945000      50.25195000      -0.00000000
X        3.98825000      11.96475000      50.25195000      -0.00000000
X        5.58355000      11.96475000      50.25195000      -0.00000000
Ta       3.19060000      12.76240000       0.00000000      -0.00000000
W        4.78590000      14.35770000       1.59530000      -0.00000000
X        3.98825000      13.56005000       0.79765000      -0.00000000
X        5.58355000      13.56005000       0.79765000      -0.00000000
X        3.98825000      15.15535000       0.79765000      -0.00000000
X        3.98825000      13.56005000       2.39295000      -0.00000000
X        5.58355000      15.15535000       0.79765000      -0.00000000
X        5.58355000      13.56005000       2.39295000      -0.00000000
X        3.98825000      15.15535000       2.39295000      -0.00000000
X        5.58355000      15.15535000       2.39295000      -0.00000000
W        3.19060000      12.76240000       3.19060000      -0.00000000
W        4.78590000      14.35770000       4.78590000      -0.00000000
X        3.98825000      13.56005000       3.98825000      -0.00000000
X        5.58355000      13.56005000       3.98825000      -0.00000000
X        3.98825000      15.15535000       3.98825000      -0.00000000
X        3.98825000      13.56005000       5.58355000      -0.00000000
X        5.58355000      15.15535000       3.98825000      -0.00000000
X        5.58355000      13.56005000       5.58355000      -0.00000000
X        3.98825000      15.15535000       5.58355000      -0.00000000
X        5.58355000      15.15535000       5.58355000      -0.00000000
W        3.19060000      12.76240000       6.38120000      -0.00000000
W        4.78590000      14.35770000       7.97650000      -0.00000000
X        3.98825000      13.56005000       7.17885000      -0.00000000
X        5.58355000      13.56005000       7.17885000      -0.00000000
X        3.98825000      15.15535000       7.17885000      -0.00000000
X        3.98825000      13.56005000       8.77415000      -0.00000000
X        5.58355000      15.15535000       7.17885000      -0.00000000
X        5.58355000      13.56005000       8.77415000      -0.00000000
X        3.98825000      15.15535000       8.77415000      -0.00000000
X        5.58355000      15.15535000       8.77415000      -0.00000000
W        3.19060000      12.76240000       9.57180000      -0.00000000
Ta       4.78590000      14.35770000      11.16710000      -0.00000003
X        3.98825000      13.56005000      10.36945000      -0.00000001
X        5.58355000      13.56005000      10.36945000      -0.00000001
X        3.98825000      15.15535000      10.36945000      -0.00000001
X        3.98825000      13.56005000      11.96475000      -0.00000020
X        5.58355000      15.15535000      10.36945000      -0.00000001
X        5.58355000      13.56005000      11.96475000      -0.00000020
X        3.98825000      15.15535000      11.96475000      -0.00000020
X        5.58355000      15.15535000      11.96475000      -0.00000020
W        3.19060000      12.76240000      12.76240000      -0.00000110
W        4.78590000      14.35770000      14.35770000      -0.00002324
X        3.98825000      13.56005000      13.56005000      -0.00000531
X        5.58355000      13.56005000      13.56005000      -0.00000531
X        3.98825000      15.15535000      13.56005000      -0.00000531
X        3.98825000      13.56005000      15.15535000      -0.00009187
X        5.58355000      15.15535000      13.56005000      -0.00000531
X        5.58355000      13.56005000      15.15535000      -0.00009187
X        3.98825000      15.15535000      15.15535000      -0.00009187
X        5.58355000      15.15535000      15.15535000      -0.00009187
W        3.19060000      12.76240000      15.95300000      -0.00032793
W        4.78590000      14.35770000      17.54830000      -0.00307912
X        3.98825000      13.56005000      16.75065000      -0.00105733
X        5.58355000      13.56005000      16.75065000      -0.00105733
X        3.98825000      15.15535000      16.75065000      -0.00105733
X        3.98825000      13.56005000      18.34595000      -0.00809897
X        5.58355000      15.15535000      16.75065000      -0.00105733
X        5.58355000      13.56005000      18.34595000      -0.00809897
X        3.98825000      15.15535000      18.34595000      -0.00809897
X        5.58355000      15.15535000      18.34595000      -0.00809897
W        3.19060000      12.76240000      19.14360000      -0.01924076
Ta       4.78590000      14.35770000      20.73890000      -0.08001555
X        3.98825000      13.56005000      19.94125000      -0.04128609
X        5.58355000      13.56005000      19.94125000      -0.04128609
X        3.98825000      15.15535000      19.94125000      -0.04128609
X        3.98825000      13.56005000      21.53655000      -0.14006646
X        5.58355000      15.15535000      19.94125000      -0.04128609
X        5.58355000      13.56005000      21.53655000      -0.14006646
X        3.98825000      15.15535000      21.53655000      -0.14006646
X        5.58355000      15.15535000      21.53655000      -0.14006646
W        3.19060000      12.76240000      22.33420000      -0.22145376
W        4.78590000      14.35770000      23.92950000      -0.40789490
X        3.98825000      13.56005000      23.13185000      -0.31624313
X        5.58355000      13.56005000      23.13185000      -0.31624313
X        3.98825000      15.15535000      23.13185000      -0.31624313
X        3.98825000      13.56005000      24.72715000      -0.47518702
X        5.58355000      15.15535000      23.13185000      -0.31624313
X        5.58355000      13.56005000      24.72715000      -0.47518702
X        3.98825000      15.15535000      24.72715000      -0.47518702
X        5.58355000      15.15535000      24.72715000      -0.47518702
Ta       3.19060000      12.76240000      25.52480000      -0.50000000
Ta       4.78590000      14.35770000      27.12010000      -0.40789490
X        3.98825000      13.56005000      26.32245000      -0.47518702
X        5.58355000      13.56005000      26.32245000      -0.47518702
X        3.98825000      15.15535000      26.32245000      -0.47518702
X        3.98825000      13.56005000      27.91775000      -0.31624313
X        5.58355000      15.15535000      26.32245000      -0.47518702
X        5.58355000      13.56005000      27.91775000      -0.31624313
X        3.98825000      15.15535000      27.91775000      -0.31624313
X        5.58355000      15.15535000      27.91775000      -0.31624313
W        3.19060000      12.76240000      28.71540000      -0.22145376
W        4.78590000      14.35770000      30.31070000      -0.08001555
X        3.98825000      13.56005000      29.51305000      -0.14006646
X        5.58355000      13.56005000      29.51305000      -0.14006646
X        3.98825000      15.15535000      29.51305000      -0.14006646
X        3.98825000      13.56005000      31.10835000      -0.04128609
X        5.58355000      15.15535000      29.51305000      -0.14006646
X        5.58355000      13.56005000      31.10835000      -0.04128609
X        3.98825000      15.15535000      31.10835000      -0.04128609
X        5.58355000      15.15535000      31.10835000      -0.04128609
W        3.19060000      12.76240000      31.90600000      -0.01924076
Ta       4.78590000      14.35770000      33.50130000      -0.00307912
X        3.98825000      13.56005000      32.70365000      -0.00809897
X        5.58355000      13.56005000      32.70365000      -0.00809897
X        3.98825000      15.15535000      32.70365000      -0.00809897
X        3.98825000      13.56005000      34.29895000      -0.00105733
X        5.58355000      15.15535000      32.70365000      -0.00809897
X        5.58355000      13.56005000      34.29895000      -0.00105733
X        3.98825000      15.15535000      34.29895000      -0.00105733
X        5.58355000      15.15535000      34.29895000      -0.00105733
W        3.19060000      12.76240000      35.09660000      -0.00032793
W        4.78590000      14.35770000      36.69190000      -0.00002324
X        3.98825000      13.56005000      35.89425000      -0.00009187
X        5.58355000      13.56005000      35.89425000      -0.00009187
X        3.98825000      15.15535000      35.89425000      -0.00009187
X        3.98825000      13.56005000      37.48955000      -0.00000531
X        5.58355000      15.15535000      35.89425000      -0.00009187
X        5.58355000      13.56005000      37.48955000      -0.00000531
X        3.98825000      15.15535000      37.48955000      -0.00000531
X        5.58355000      15.15535000      37.48955000      -0.00000531
Ta       3.19060000      12.76240000      38.28720000      -0.00000110
W        4.78590000      14.35770000      39.88250000      -0.00000003
X        3.98825000      13.56005000      39.08485000      -0.00000020
X        5.58355000      13.56005000      39.08485000      -0.00000020
X        3.98825000      15.15535000      39.08485000      -0.00000020
X        3.98825000      13.56005000      40.68015000      -0.00000001
X        5.58355000      15.15535000      39.08485000      -0.00000020
X        5.58355000      13.56005000      40.68015000      -0.00000001
X        3.98825000      15.15535000      40.68015000      -0.00000001
X        5.58355000      15.15535000      40.68015000      -0.00000001
W        3.19060000      12.76240000      41.47780000      -0.00000000
W        4.78590000      14.35770000      43.07310000      -0.00000000
X        3.98825000      13.56005000      42.27545000      -0.00000000
X        5.58355000      13.56005000      42.27545000      -0.00000000
X        3.98825000      15.15535000      42.27545000      -0.00000000
X        3.98825000      13.56005000      43.87075000      -0.00000000
X        5.58355000      15.15535000      42.27545000      -0.00000000
X        5.58355000      13.56005000      43.87075000      -0.00000000
X        3.98825000      15.15535000      43.87075000      -0.00000000
X        5.58355000      15.15535000      43.87075000      -0.00000000
W        3.19060000      12.76240000      44.66840000      -0.00000000
W        4.78590000      14.35770000      46.26370000      -0.00000000
X        3.98825000      13.56005000      45.46605000      -0.00000000
X        5.58355000      13.56005000      45.46605000      -0.00000000
X        3.98825000      15.15535000      45.46605000      -0.00000000
X        3.98825000      13.56005000      47.06135000      -0.00000000
X        5.58355000      15.15535000      45.46605000      -0.00000000
X        5.58355000      13.56005000      47.06135000      -0.00000000
X        3.98825000      15.15535000      47.06135000      -0.00000000
X        5.58355000      15.15535000      47.06135000      -0.00000000
W        3.19060000      12.76240000      47.85900000      -0.00000000
W        4.78590000      14.35770000      49.45430000      -0.00000000
X        3.98825000      13.56005000      48.65665000      -0.00000000
X        5.58355000      13.56005000      48.65665000      -0.00000000
X        3.98825000      15.15535000      48.65665000      -0.00000000
X        3.98825000      13.56005000      50.25195000      -0.00000000
X        5.58355000      15.15535000      48.65665000      -0.00000000
X        5.58355000      13.56005000      50.25195000      -0.00000000
X        3.98825000      15.15535000      50.25195000      -0.00000000
X        5.58355000      15.15535000      50.25195000      -0.00000000
W        3.19060000      15.95300000       0.00000000      -0.00000000
Ta       4.78590000      17.54830000       1.59530000      -0.00000000
X        3.98825000      16.75065000       0.79765000      -0.00000000
X        5.58355000      16.75065000       0.79765000      -0.00000000
X        3.98825000      18.34595000       0.79765000      -0.00000000
X        3.98825000      16.75065000       2.39295000      -0.00000000
X        5.58355000      18.34595000       0.79765000      -0.00000000
X        5.58355000      16.75065000       2.39295000      -0.00000000
X        3.98825000      18.34595000       2.39295000      -0.00000000
X        5.58355000      18.34595000       2.39295000      -0.00000000
Ta       3.19060000      15.95300000       3.19060000      -0.00000000
Ta       4.78590000      17.54830000       4.78590000      -0.00000000
X        3.98825000      16.75065000       3.98825000      -0.00000000
X        5.58355000      16.75065000       3.98825000      -0.00000000
X        3.98825000      18.34595000       3.98825000      -0.00000000
X        3.98825000      16.75065000       5.58355000      -0.00000000
X        5.58355000      18.34595000       3.98825000      -0.00000000
X        5.58355000      16.75065000       5.58355000      -0.00000000
X        3.98825000      18.34595000       5.58355000      -0.00000000
X        5.58355000      18.34595000       5.58355000      -0.00000000
W        3.19060000      15.95300000       6.38120000      -0.00000000
W        4.78590000      17.54830000       7.97650000      -0.00000000
X        3.98825000      16.75065000       7.17885000      -0.00000000
X        5.58355000      16.75065000       7.17885000      -0.00000000
X        3.98825000      18.34595000       7.17885000      -0.00000000
X        3.98825000      16.75065000       8.77415000      -0.00000000
X        5.58355000      18.34595000       7.17885000      -0.00000000
X        5.58355000      16.75065000       8.77415000      -0.00000000
X        3.98825000      18.34595000       8.77415000      -0.00000000
X        5.58355000      18.34595000       8.77415000      -0.00000000
W        3.19060000      15.95300000       9.57180000      -0.00000000
W        4.78590000      17.54830000      11.16710000      -0.00000003
X        3.98825000      16.75065000      10.36945000      -0.00000001
X        5.58355000      16.75065000      10.36945000      -0.00000001
X        3.98825000      18.34595000      10.36945000      -0.00000001
X        3.98825000      16.75065000      11.96475000      -0.00000020
X        5.58355000      18.34595000      10.36945000      -0.00000001
X        5.58355000      16.75065000      11.96475000      -0.00000020
X        3.98825000      18.34595000      11.96475000      -0.00000020
X        5.58355000      18.34595000      11.96475000      -0.00000020
W        3.19060000      15.95300000      12.76240000      -0.00000110
W        4.78590000      17.54830000      14.35770000      -0.00002324
X        3.98825000      16.75065000      13.56005000      -0.00000531
X        5.58355000      16.75065000      13.56005000      -0.00000531
X        3.98825000      18.34595000      13.56005000      -0.00000531
X        3.98825000      16.75065000      15.15535000      -0.00009187
X        5.58355000      18.34595000      13.56005000      -0.00000531
X        5.58355000      16.75065000      15.15535000      -0.00009187
X        3.98825000      18.34595000      15.15535000      -0.00009187
X        5.58355000      18.34595000      15.15535000      -0.00009187
W        3.19060000      15.95300000      15.95300000      -0.00032793
W        4.78590000      17.54830000      17.54830000      -0.00307912
X        3.98825000      16.75065000      16.75065000      -0.00105733
X        5.58355000      16.75065000      16.75065000      -0.00105733
X        3.98825000      18.34595000      16.75065000      -0.00105733
X        3.98825000      16.75065000      18.34595000      -0.00809897
X        5.58355000      18.34595000      16.75065000      -0.00105733
X        5.58355000      16.75065000      18.34595000      -0.00809897
X        3.98825000      18.34595000      18.34595000      -0.00809897
X        5.58355000      18.34595000      18.34595000      -0.00809897
Ta       3.19060000      15.95300000      19.14360000      -0.01924076
Ta       4.78590000      17.54830000      20.73890000      -0.08001555
X        3.98825000      16.75065000      19.94125000      -0.04128609
X        5.58355000      16.75065000      19.94125000      -0.04128609
X        3.98825000      18.34595000      19.94125000      -0.04128609
X        3.98825000      16.75065000      21.53655000      -0.14006646
X        5.58355000      18.34595000      19.94125000      -0.04128609
X        5.58355000      16.75065000      21.53655000      -0.14006646
X        3.98825000      18.34595000      21.53655000      -0.14006646
X        5.58355000      18.34595000      21.53655000      -0.14006646
W        3.19060000      15.95300000      22.33420000      -0.22145376
W        4.78590000      17.54830000      23.92950000      -0.40789490
X        3.98825000      16.75065000      23.13185000      -0.31624313
X        5.58355000      16.75065000      23.13185000      -0.31624313
X        3.98825000      18.34595000      23.13185000      -0.31624313
X        3.98825000      16.75065000      24.72715000      -0.47518702
X        5.58355000      18.34595000      23.13185000      -0.31624313
X        5.58355000      16.75065000      24.72715000      -0.47518702
X        3.98825000      18.34595000      24.72715000      -0.47518702
X        5.58355000      18.34595000      24.72715000      -0.47518702
W        3.19060000      15.95300000      25.52480000      -0.50000000
W        4.78590000      17.54830000      27.12010000      -0.40789490
X        3.98825000      16.75065000      26.32245000      -0.47518702
X        5.58355000      16.75065000      26.32245000      -0.47518702
X        3.98825000      18.34595000      26.32245000      -0.47518702
X        3.98825000      16.75065000      27.91775000      -0.31624313
X        5.58355000      18.34595000      26.32245000      -0.47518702
X        5.58355000      16.75065000      27.91775000      -0.31624313
X        3.98825000      18.34595000      27.91775000      -0.31624313
X        5.58355000      18.34595000      27.91775000      -0.31624313
Ta       3.19060000      15.95300000      28.71540000      -0.22145376
W        4.78590000      17.54830000      30.31070000      -0.08001555
X        3.98825000      16.75065000      29.51305000      -0.14006646
X        5.58355000      16.75065000      29.51305000      -0.14006646
X        3.98825000      18.34595000      29.51305000      -0.14006646
X        3.98825000      16.75065000      31.10835000      -0.04128609
X        5.58355000      18.34595000      29.51305000      -0.14006646
X        5.58355000      16.75065000      31.10835000      -0.04128609
X        3.98825000      18.34595000      31.10835000      -0.04128609
X        5.58355000      18.34595000      31.10835000      -0.04128609
W        3.19060000      15.95300000      31.90600000      -0.01924076
W        4.78590000      17.54830000      33.50130000      -0.00307912
X        3.98825000      16.75065000      32.70365000      -0.00809897
X        5.58355000      16.75065000      32.70365000      -0.00809897
X        3.98825000      18.34595000      32.70365000      -0.00809897
X        3.98825000      16.75065000      34.29895000      -0.00105733
X        5.58355000      18.34595000      32.70365000      -0.00809897
X        5.58355000      16.75065000      34.29895000      -0.00105733
X        3.98825000      18.34595000      34.29895000      -0.00105733
X        5.58355000      18.34595000      34.29895000      -0.00105733
W        3.19060000      15.95300000      35.09660000      -0.00032793
W        4.78590000      17.54830000      36.69190000      -0.00002324
X        3.98825000      16.75065000      35.89425000      -0.00009187
X        5.58355000      16.75065000      35.89425000      -0.00009187
X        3.98825000      18.34595000      35.89425000      -0.00009187
X        3.98825000      16.75065000      37.48955000      -0.00000531
X        5.58355000      18.34595000      35.89425000      -0.00009187
X        5.58355000      16.75065000      37.48955000      -0.00000531
X        3.98825000      18.34595000      37.48955000      -0.00000531
X        5.58355000      18.34595000      37.48955000      -0.00000531
W        3.19060000      15.95300000      38.28720000      -0.00000110
W        4.78590000      17.54830000      39.88250000      -0.00000003
X        3.98825000      16.75065000      39.08485000      -0.00000020
X        5.58355000      16.75065000      39.08485000      -0.00000020
X        3.98825000      18.34595000      39.08485000      -0.00000020
X        3.98825000      16.75065000      40.68015000      -0.00000001
X        5.58355000      18.34595000      39.08485000      -0.00000020
X        5.58355000      16.75065000      40.68015000      -0.00000001
X        3.98825000      18.34595000      40.68015000      -0.00000001
X        5.58355000      18.34595000      40.68015000      -0.00000001
W        3.19060000      15.95300000      41.47780000      -0.00000000
W        4.78590000      17.54830000      43.07310000      -0.00000000
X        3.98825000      16.75065000      42.27545000      -0.00000000
X        5.58355000      16.75065000      42.27545000      -0.00000000
X        3.98825000      18.34595000      42.27545000      -0.00000000
X        3.98825000      16.75065000      43.87075000      -0.00000000
X        5.58355000      18.34595000      42.27545000      -0.00000000
X        5.58355000      16.75065000      43.87075000      -0.00000000
X        3.98825000      18.34595000      43.87075000      -0.00000000
X        5.58355000      18.34595000      43.87075000      -0.00000000
W        3.19060000      15.95300000      44.66840000      -0.00000000
Ta       4.78590000      17.54830000      46.26370000      -0.00000000
X        3.98825000      16.75065000      45.46605000      -0.00000000
X        5.58355000      16.75065000      45.46605000      -0.00000000
X        3.98825000      18.34595000      45.46605000      -0.00000000
X        3.98825000      16.75065000      47.06135000      -0.00000000
X        5.58355000      18.34595000      45.46605000      -0.00000000
X        5.58355000      16.75065000      47.06135000      -0.00000000
X        3.98825000      18.34595000      47.06135000      -0.00000000
X        5.58355000      18.34595000      47.06135000      -0.00000000
W        3.19060000      15.95300000      47.85900000      -0.00000000
W        4.78590000      17.54830000      49.45430000      -0.00000000
X        3.98825000      16.75065000      48.65665000      -0.00000000
X        5.58355000      16.75065000      48.65665000      -0.00000000
X        3.98825000      18.34595000      48.65665000      -0.00000000
X        3.98825000      16.75065000      50.25195000      -0.00000000
X        5.58355000      18.34595000      48.65665000      -0.00000000
X        5.58355000      16.75065000      50.25195000      -0.00000000
X        3.98825000      18.34595000      50.25195000      -0.00000000
X        5.58355000      18.34595000      50.25195000      -0.00000000
W        3.19060000      19.14360000       0.00000000      -0.00000000
Ta       4.78590000      20.73890000       1.59530000      -0.00000000
X        3.98825000      19.94125000       0.79765000      -0.00000000
X        5.58355000      19.94125000       0.79765000      -0.00000000
X        3.98825000      21.53655000       0.79765000      -0.00000000
X        3.98825000      19.94125000       2.39295000      -0.00000000
X        5.58355000      21.53655000       0.79765000      -0.00000000
X        5.58355000      19.94125000       2.39295000      -0.00000000
X        3.98825000      21.53655000       2.39295000      -0.00000000
X        5.58355000      21.53655000       2.39295000      -0.00000000
W        3.19060000      19.14360000       3.19060000      -0.00000000
Ta       4.78590000      20.73890000       4.78590000      -0.00000000
X        3.98825000      19.94125000       3.98825000      -0.00000000
X        5.58355000      19.94125000       3.98825000      -0.00000000
X        3.98825000      21.53655000       3.98825000      -0.00000000
X        3.98825000      19.94125000       5.58355000      -0.00000000
X        5.58355000      21.53655000       3.98825000      -0.00000000
X        5.58355000      19.94125000       5.58355000      -0.00000000
X        3.98825000      21.53655000       5.58355000      -0.00000000
X        5.58355000      21.53655000       5.58355000      -0.00000000
W        3.19060000      19.14360000       6.38120000      -0.00000000
W        4.78590000      20.73890000       7.97650000      -0.00000000
X        3.98825000      19.94125000       7.17885000      -0.00000000
X        5.58355000      19.94125000       7.17885000      -0.00000000
X        3.98825000      21.53655000       7.17885000      -0.00000000
X        3.98825000      19.94125000       8.77415000      -0.00000000
X        5.58355000      21.53655000       7.17885000      -0.00000000
X        5.58355000      19.94125000       8.77415000      -0.00000000
X        3.98825000      21.53655000       8.77415000      -0.00000000
X        5.58355000      21.53655000       8.77415000      -0.00000000
W        3.19060000      19.14360000       9.57180000      -0.00000000
W        4.78590000      20.73890000      11.16710000      -0.00000003
X        3.98825000      19.94125000      10.36945000      -0.00000001
X        5.58355000      19.94125000      10.36945000      -0.00000001
X        3.98825000      21.53655000      10.36945000      -0.00000001
X        3.98825000      19.94125000      11.96475000      -0.00000020
X        5.58355000      21.53655000      10.36945000      -0.00000001
X        5.58355000      19.94125000      11.96475000      -0.00000020
X        3.98825000      21.53655000      11.96475000      -0.00000020
X        5.58355000      21.53655000      11.96475000      -0.00000020
W        3.19060000      19.14360000      12.76240000      -0.00000110
W        4.78590000      20.73890000      14.35770000      -0.00002324
X        3.98825000      19.94125000      13.56005000      -0.00000531
X        5.58355000      19.94125000      13.56005000      -0.00000531
X        3.98825000      21.53655000      13.56005000      -0.00000531
X        3.98825000      19.94125000      15.15535000      -0.00009187
X        5.58355000      21.53655000      13.56005000      -0.00000531
X        5.58355000      19.94125000      15.15535000      -0.00009187
X        3.98825000      21.53655000      15.15535000      -0.00009187
X        5.58355000      21.53655000      15.15535000      -0.00009187
W        3.19060000      19.14360000      15.95300000      -0.00032793
W        4.78590000      20.73890000      17.54830000      -0.00307912
X        3.98825000      19.94125000      16.75065000      -0.00105733
X        5.58355000      19.94125000      16.75065000      -0.00105733
X        3.98825000      21.53655000      16.75065000      -0.00105733
X        3.98825000      19.94125000      18.34595000      -0.00809897
X        5.58355000      21.53655000      16.75065000      -0.00105733
X        5.58355000      19.94125000      18.34595000      -0.00809897
X        3.98825000      21.53655000      18.34595000      -0.00809897
X        5.58355000      21.53655000      18.34595000      -0.00809897
W        3.19060000      19.14360000      19.14360000      -0.01924076
W        4.78590000      20.73890000      20.73890000      -0.08001555
X        3.98825000      19.94125000      19.94125000      -0.04128609
X        5.58355000      19.94125000      19.94125000      -0.04128609
X        3.98825000      21.53655000      19.94125000      -0.04128609
X        3.98825000      19.94125000      21.53655000      -0.14006646
X        5.58355000      21.53655000      19.94125000      -0.04128609
X        5.58355000      19.94125000      21.53655000      -0.14006646
X        3.98825000      21.53655000      21.53655000      -0.14006646
X        5.58355000      21.53655000      21.53655000      -0.14006646
W        3.19060000      19.14360000      22.33420000      -0.22145376
Ta       4.78590000      20.73890000      23.92950000      -0.40789490
X        3.98825000      19.94125000      23.13185000      -0.31624313
X        5.58355000      19.94125000      23.13185000      -0.31624313
X        3.98825000      21.53655000      23.13185000      -0.31624313
X        3.98825000      19.94125000      24.72715000      -0.47518702
X        5.58355000      21.53655000      23.13185000      -0.31624313
X        5.58355000      19.94125000      24.72715000      -0.47518702
X        3.98825000      21.53655000      24.72715000      -0.47518702
X        5.58355000      21.53655000      24.72715000      -0.47518702
Ta       3.19060000      19.14360000      25.52480000      -0.50000000
W        4.78590000      20.73890000      27.12010000      -0.40789490
X        3.98825000      19.94125000      26.32245000      -0.47518702
X        5.58355000      19.94125000      26.32245000      -0.47518702
X        3.98825000      21.53655000      26.32245000      -0.47518702
X        3.98825000      19.94125000      27.91775000      -0.31624313
X        5.58355000      21.53655000      26.32245000      -0.47518702
X        5.58355000      19.94125000      27.91775000      -0.31624313
X        3.98825000      21.53655000      27.91775000      -0.31624313
X        5.58355000      21.53655000      27.91775000      -0.31624313
W        3.19060000      19.14360000      28.71540000      -0.22145376
W        4.78590000      20.73890000      30.31070000      -0.08001555
X        3.98825000      19.94125000      29.51305000      -0.14006646
X        5.58355000      19.94125000      29.51305000      -0.14006646
X        3.98825000      21.53655000      29.51305000      -0.14006646
X        3.98825000      19.94125000      31.10835000      -0.04128609
X        5.58355000      21.53655000      29.51305000      -0.14006646
X        5.58355000      19.94125000      31.10835000      -0.04128609
X        3.98825000      21.53655000      31.10835000      -0.04128609
X        5.58355000      21.53655000      31.10835000      -0.04128609
Ta       3.19060000      19.14360000      31.90600000      -0.01924076
W        4.78590000      20.73890000      33.50130000      -0.00307912
X        3.98825000      19.94125000      32.70365000      -0.00809897
X        5.58355000      19.94125000      32.70365000      -0.00809897
X        3.98825000      21.53655000      32.70365000      -0.00809897
X        3.98825000      19.94125000      34.29895000      -0.00105733
X        5.58355000      21.53655000      32.70365000      -0.00809897
X        5.58355000      19.94125000      34.29895000      -0.00105733
X        3.98825000      21.53655000      34.29895000      -0.00105733
X        5.58355000      21.53655000      34.29895000      -0.00105733
W        3.19060000      19.14360000      35.09660000      -0.00032793
Ta       4.78590000      20.73890000      36.69190000      -0.00002324
X        3.98825000      19.94125000      35.89425000      -0.00009187
X        5.58355000      19.94125000      35.89425000      -0.00009187
X        3.98825000      21.53655000      35.89425000      -0.00009187
X        3.98825000      19.94125000      37.48955000      -0.00000531
X        5.58355000      21.53655000      35.89425000      -0.00009187
X        5.58355000      19.94125000      37.48955000      -0.00000531
X        3.98825000      21.53655000      37.48955000      -0.00000531
X        5.58355000      21.53655000      37.48955000      -0.00000531
W        3.19060000      19.14360000      38.28720000      -0.00000110
W        4.78590000      20.73890000      39.88250000      -0.00000003
X        3.98825000      19.94125000      39.08485000      -0.00000020
X        5.58355000      19.94125000      39.08485000      -0.00000020
X        3.98825000      21.53655000      39.08485000      -0.00000020
X        3.98825000      19.94125000      40.68015000      -0.00000001
X        5.58355000      21.53655000      39.08485000      -0.00000020
X        5.58355000      19.94125000      40.68015000      -0.00000001
X        3.98825000      21.53655000      40.68015000      -0.00000001
X        5.58355000      21.53655000      40.68015000      -0.00000001
W        3.19060000      19.14360000      41.47780000      -0.00000000
W        4.78590000      20.73890000      43.07310000      -0.00000000
X        3.98825000      19.94125000      42.27545000      -0.00000000
X        5.58355000      19.94125000      42.27545000      -0.00000000
X        3.98825000      21.53655000      42.27545000      -0.00000000
X        3.98825000      19.94125000      43.87075000      -0.00000000
X        5.58355000      21.53655000      42.27545000      -0.00000000
X        5.58355000      19.94125000      43.87075000      -0.00000000
X        3.98825000      21.53655000      43.87075000      -0.00000000
X        5.58355000      21.53655000      43.87075000      -0.00000000
W        3.19060000      19.14360000      44.66840000      -0.00000000
W        4.78590000      20.73890000      46.26370000      -0.00000000
X        3.98825000      19.94125000      45.46605000      -0.00000000
X        5.58355000      19.94125000      45.46605000      -0.00000000
X        3.98825000      21.53655000      45.46605000      -0.00000000
X        3.98825000      19.94125000      47.06135000      -0.00000000
X        5.58355000      21.53655000      45.46605000      -0.00000000
X        5.58355000      19.94125000      47.06135000      -0.00000000
X        3.98825000      21.53655000      47.06135000      -0.00000000
X        5.58355000      21.53655000      47.06135000      -0.00000000
W        3.19060000      19.14360000      47.85900000      -0.00000000
W        4.78590000      20.73890000      49.45430000      -0.00000000
X        3.98825000      19.94125000      48.65665000      -0.00000000
X        5.58355000      19.94125000      48.65665000      -0.00000000
X        3.98825000      21.53655000      48.65665000      -0.00000000
X        3.98825000      19.94125000      50.25195000      -0.00000000
X        5.58355000      21.53655000      48.65665000      -0.00000000
X        5.58355000      19.94125000      50.25195000      -0.00000000
X        3.98825000      21.53655000      50.25195000      -0.00000000
X        5.58355000      21.53655000      50.25195000      -0.00000000
W        3.19060000      22.33420000       0.00000000      -0.00000000
W        4.78590000      23.92950000       1.59530000      -0.00000000
X        3.98825000      23.13185000       0.79765000      -0.00000000
X        5.58355000      23.13185000       0.79765000      -0.00000000
X        3.98825000      24.72715000       0.79765000      -0.00000000
X        3.98825000      23.13185000       2.39295000      -0.00000000
X        5.58355000      24.72715000       0.79765000      -0.00000000
X        5.58355000      23.13185000       2.39295000      -0.00000000
X        3.98825000      24.72715000       2.39295000      -0.00000000
X        5.58355000      24.72715000       2.39295000      -0.00000000
Ta       3.19060000      22.33420000       3.19060000      -0.00000000
W        4.78590000      23.92950000       4.78590000      -0.00000000
X        3.98825000      23.13185000       3.98825000      -0.00000000
X        5.58355000      23.13185000       3.98825000      -0.00000000
X        3.98825000      24.72715000       3.98825000      -0.00000000
X        3.98825000      23.13185000       5.58355000      -0.00000000
X        5.58355000      24.72715000       3.98825000      -0.00000000
X        5.58355000      23.13185000       5.58355000      -0.00000000
X        3.98825000      24.72715000       5.58355000      -0.00000000
X        5.58355000      24.72715000       5.58355000      -0.00000000
W        3.19060000      22.33420000       6.38120000      -0.00000000
W        4.78590000      23.92950000       7.97650000      -0.00000000
X        3.98825000      23.13185000       7.17885000      -0.00000000
X        5.58355000      23.13185000       7.17885000      -0.00000000
X        3.98825000      24.72715000       7.17885000      -0.00000000
X        3.98825000      23.13185000       8.77415000      -0.00000000
X        5.58355000      24.72715000       7.17885000      -0.00000000
X        5.58355000      23.13185000       8.77415000      -0.00000000
X        3.98825000      24.72715000       8.77415000      -0.00000000
X        5.58355000      24.72715000       8.77415000      -0.00000000
W        3.19060000      22.33420000       9.57180000      -0.00000000
Ta       4.78590000      23.92950000      11.16710000      -0.00000003
X        3.98825000      23.13185000      10.36945000      -0.00000001
X        5.58355000      23.13185000      10.36945000      -0.00000001
X        3.98825000      24.72715000      10.36945000      -0.00000001
X        3.98825000      23.13185000      11.96475000      -0.00000020
X        5.58355000      24.72715000      10.36945000      -0.00000001
X        5.58355000      23.13185000      11.96475000      -0.00000020
X        3.98825000      24.72715000      11.96475000      -0.00000020
X        5.58355000      24.72715000      11.96475000      -0.00000020
Ta       3.19060000      22.33420000      12.76240000      -0.00000110
W        4.78590000      23.92950000      14.35770000      -0.00002324
X        3.98825000      23.13185000      13.56005000      -0.00000531
X        5.58355000      23.13185000      13.56005000      -0.00000531
X        3.98825000      24.72715000      13.56005000      -0.00000531
X        3.98825000      23.13185000      15.15535000      -0.00009187
X        5.58355000      24.72715000      13.56005000      -0.00000531
X        5.58355000      23.13185000      15.15535000      -0.00009187
X        3.98825000      24.72715000      15.15535000      -0.00009187
X        5.58355000      24.72715000      15.15535000      -0.00009187
W        3.19060000      22.33420000      15.95300000      -0.00032793
Ta       4.78590000      23.92950000      17.54830000      -0.00307912
X        3.98825000      23.13185000      16.75065000      -0.00105733
X        5.58355000      23.13185000      16.75065000      -0.00105733
X        3.98825000      24.72715000      16.75065000      -0.00105733
X        3.98825000      23.13185000      18.34595000      -0.00809897
X        5.58355000      24.72715000      16.75065000      -0.00105733
X        5.58355000      23.13185000      18.34595000      -0.00809897
X        3.98825000      24.72715000      18.34595000      -0.00809897
X        5.58355000      24.72715000      18.34595000      -0.00809897
W        3.19060000      22.33420000      19.14360000      -0.01924076
W        4.78590000      23.92950000      20.73890000      -0.08001555
X        3.98825000      23.13185000      19.94125000      -0.04128609
X        5.58355000      23.13185000      19.94125000      -0.04128609
X        3.98825000      24.72715000      19.94125000      -0.04128609
X        3.98825000      23.13185000      21.53655000      -0.14006646
X        5.58355000      24.72715000      19.94125000      -0.04128609
X        5.58355000      23.13185000      21.53655000      -0.14006646
X        3.98825000      24.72715000      21.53655000      -0.14006646
X        5.58355000      24.72715000      21.53655000      -0.14006646
W        3.19060000      22.33420000      22.33420000      -0.22145376
W        4.78590000      23.92950000      23.92950000      -0.40789490
X        3.98825000      23.13185000      23.13185000      -0.31624313
X        5.58355000      23.13185000      23.13185000      -0.31624313
X        3.98825000      24.72715000      23.13185000      -0.31624313
X        3.98825000      23.13185000      24.72715000      -0.47518702
X        5.58355000      24.72715000      23.13185000      -0.31624313
X        5.58355000      23.13185000      24.72715000      -0.47518702
X        3.98825000      24.72715000      24.72715000      -0.47518702
X        5.58355000      24.72715000      24.72715000      -0.47518702
W        3.19060000      22.33420000      25.52480000      -0.50000000
W        4.78590000      23.92950000      27.12010000      -0.40789490
X        3.98825000      23.13185000      26.32245000      -0.47518702
X        5.58355000      23.13185000      26.32245000      -0.47518702
X        3.98825000      24.72715000      26.32245000      -0.47518702
X        3.98825000      23.13185000      27.91775000      -0.31624313
X        5.58355000      24.72715000      26.32245000      -0.47518702
X        5.58355000      23.13185000      27.91775000      -0.31624313
X        3.98825000      24.72715000      27.91775000      -0.31624313
X        5.58355000      24.72715000      27.91775000      -0.31624313
Ta       3.19060000      22.33420000      28.71540000      -0.22145376
W        4.78590000      23.92950000      30.31070000      -0.08001555
X        3.98825000      23.13185000      29.51305000      -0.14006646
X        5.58355000      23.13185000      29.51305000      -0.14006646
X        3.98825000      24.72715000      29.51305000      -0.14006646
X        3.98825000      23.13185000      31.10835000      -0.04128609
X        5.58355000      24.72715000      29.51305000      -0.14006646
X        5.58355000      23.13185000      31.10835000      -0.04128609
X        3.98825000      24.72715000      31.10835000      -0.04128609
X        5.58355000      24.72715000      31.10835000      -0.04128609
W        3.19060000      22.33420000      31.90600000      -0.01924076
W        4.78590000      23.92950000      33.50130000      -0.00307912
X        3.98825000      23.13185000      32.70365000      -0.00809897
X        5.58355000      23.13185000      32.70365000      -0.00809897
X        3.98825000      24.72715000      32.70365000      -0.00809897
X        3.98825000      23.13185000      34.29895000      -0.00105733
X        5.58355000      24.72715000      32.70365000      -0.00809897
X        5.58355000      23.13185000      34.29895000      -0.00105733
X        3.98825000      24.72715000      34.29895000      -0.00105733
X        5.58355000      24.72715000      34.29895000      -0.00105733
W        3.19060000      22.33420000      35.09660000      -0.00032793
W        4.78590000      23.92950000      36.69190000      -0.00002324
X        3.98825000      23.13185000      35.89425000      -0.00009187
X        5.58355000      23.13185000      35.89425000      -0.00009187
X        3.98825000      24.72715000      35.89425000      -0.00009187
X        3.98825000      23.13185000      37.48955000      -0.00000531
X        5.58355000      24.72715000      35.89425000      -0.00009187
X        5.58355000      23.13185000      37.48955000      -0.00000531
X        3.98825000      24.72715000      37.48955000      -0.00000531
X        5.58355000      24.72715000      37.48955000      -0.00000531
W        3.19060000      22.33420000      38.28720000      -0.00000110
Ta       4.78590000      23.92950000      39.88250000      -0.00000003
X        3.98825000      23.13185000      39.08485000      -0.00000020
X        5.58355000      23.13185000      39.08485000      -0.00000020
X        3.98825000      24.72715000      39.08485000      -0.00000020
X        3.98825000      23.13185000      40.68015000      -0.00000001
X        5.58355000      24.72715000      39.08485000      -0.00000020
X        5.58355000      23.13185000      40.68015000      -0.00000001
X        3.98825000      24.72715000      40.68015000      -0.00000001
X        5.58355000      24.72715000      40.68015000      -0.00000001
W        3.19060000      22.33420000      41.47780000      -0.00000000
W        4.78590000      23.92950000      43.07310000      -0.00000000
X        3.98825000      23.13185000      42.27545000      -0.00000000
X        5.58355000      23.13185000      42.27545000      -0.00000000
X        3.98825000      24.72715000      42.27545000      -0.00000000
X        3.98825000      23.13185000      43.87075000      -0.00000000
X        5.58355000      24.72715000      42.27545000      -0.00000000
X        5.58355000      23.13185000      43.87075000      -0.00000000
X        3.98825000      24.72715000      43.87075000      -0.00000000
X        5.58355000      24.72715000      43.87075000      -0.00000000
W        3.19060000      22.33420000      44.66840000      -0.00000000
W        4.78590000      23.92950000      46.26370000      -0.00000000
X        3.98825000      23.13185000      45.46605000      -0.00000000
X        5.58355000      23.13185000      45.46605000      -0.00000000
X        3.98825000      24.72715000      45.46605000      -0.00000000
X        3.98825000      23.13185000      47.06135000      -0.00000000
X        5.58355000      24.72715000      45.46605000      -0.00000000
X        5.58355000      23.13185000      47.06135000      -0.00000000
X        3.98825000      24.72715000      47.06135000      -0.00000000
X        5.58355000      24.72715000      47.06135000      -0.00000000
Ta       3.19060000      22.33420000      47.85900000      -0.00000000
W        4.78590000      23.92950000      49.45430000      -0.00000000
X        3.98825000      23.13185000      48.65665000      -0.00000000
X        5.58355000      23.13185000      48.65665000      -0.00000000
X        3.98825000      24.72715000      48.65665000      -0.00000000
X        3.98825000      23.13185000      50.25195000      -0.00000000
X        5.58355000      24.72715000      48.65665000      -0.00000000
X        5.58355000      23.13185000      50.25195000      -0.00000000
X        3.98825000      24.72715000      50.25195000      -0.00000000
X        5.58355000      24.72715000      50.25195000      -0.00000000
W        3.19060000      25.52480000       0.00000000      -0.00000000
Ta       4.78590000      27.12010000       1.59530000      -0.00000000
X        3.98825000      26.32245000       0.79765000      -0.00000000
X        5.58355000      26.32245000       0.79765000      -0.00000000
X        3.98825000      27.91775000       0.79765000      -0.00000000
X        3.98825000      26.32245000       2.39295000      -0.00000000
X        5.58355000      27.91775000       0.79765000      -0.00000000
X        5.58355000      26.32245000       2.39295000      -0.00000000
X        3.98825000      27.91775000       2.39295000      -0.00000000
X        5.58355000      27.91775000       2.39295000      -0.00000000
W        3.19060000      25.52480000       3.19060000      -0.00000000
W        4.78590000      27.12010000       4.78590000      -0.00000000
X        3.98825000      26.32245000       3.98825000      -0.00000000
X        5.58355000      26.32245000       3.98825000      -0.00000000
X        3.98825000      27.91775000       3.98825000      -0.00000000
X        3.98825000      26.32245000       5.58355000      -0.00000000
X        5.58355000      27.91775000       3.98825000      -0.00000000
X        5.58355000      26.32245000       5.58355000      -0.00000000
X        3.98825000      27.91775000       5.58355000      -0.00000000
X        5.58355000      27.91775000       5.58355000      -0.00000000
W        3.19060000      25.52480000       6.38120000      -0.00000000
W        4.78590000      27.12010000       7.97650000      -0.00000000
X        3.98825000      26.32245000       7.17885000      -0.00000000
X        5.58355000      26.32245000       7.17885000      -0.00000000
X        3.98825000      27.91775000       7.17885000      -0.00000000
X        3.98825000      26.32245000       8.77415000      -0.00000000
X        5.58355000      27.91775000       7.17885000      -0.00000000
X        5.58355000      26.32245000       8.77415000      -0.00000000
X        3.98825000      27.91775000       8.77415000      -0.00000000
X        5.58355000      27.91775000       8.77415000      -0.00000000
W        3.19060000      25.52480000       9.57180000      -0.00000000
W        4.78590000      27.12010000      11.16710000      -0.00000003
X        3.98825000      26.32245000      10.36945000      -0.00000001
X        5.58355000      26.32245000      10.36945000      -0.00000001
X        3.98825000      27.91775000      10.36945000      -0.00000001
X        3.98825000      26.32245000      11.96475000      -0.00000020
X        5.58355000      27.91775000      10.36945000      -0.00000001
X        5.58355000      26.32245000      11.96475000      -0.00000020
X        3.98825000      27.91775000      11.96475000      -0.00000020
X        5.58355000      27.91775000      11.96475000      -0.00000020
W        3.19060000      25.52480000      12.76240000      -0.00000110
Ta       4.78590000      27.12010000      14.35770000      -0.00002324
X        3.98825000      26.32245000      13.56005000      -0.00000531
X        5.58355000      26.32245000      13.56005000      -0.00000531
X        3.98825000      27.91775000      13.56005000      -0.00000531
X        3.98825000      26.32245000      15.15535000      -0.00009187
X        5.58355000      27.91775000      13.56005000      -0.00000531
X        5.58355000      26.32245000      15.15535000      -0.00009187
X        3.98825000      27.91775000      15.15535000      -0.00009187
X        5.58355000      27.91775000      15.15535000      -0.00009187
Ta       3.19060000      25.52480000      15.95300000      -0.00032793
Ta       4.78590000      27.12010000      17.54830000      -0.00307912
X        3.98825000      26.32245000      16.75065000      -0.00105733
X        5.58355000      26.32245000      16.75065000      -0.00105733
X        3.98825000      27.91775000      16.75065000      -0.00105733
X        3.98825000      26.32245000      18.34595000      -0.00809897
X        5.58355000      27.91775000      16.75065000      -0.00105733
X        5.58355000      26.32245000      18.34595000      -0.00809897
X        3.98825000      27.91775000      18.34595000      -0.00809897
X        5.58355000      27.91775000      18.34595000      -0.00809897
W        3.19060000      25.52480000      19.14360000      -0.01924076
Ta       4.78590000      27.12010000      20.73890000      -0.08001555
X        3.98825000      26.32245000      19.94125000      -0.04128609
X        5.58355000      26.32245000      19.94125000      -0.04128609
X        3.98825000      27.91775000      19.94125000      -0.04128609
X        3.98825000      26.32245000      21.53655000      -0.14006646
X        5.58355000      27.91775000      19.94125000      -0.04128609
X        5.58355000      26.32245000      21.53655000      -0.14006646
X        3.98825000      27.91775000      21.53655000      -0.14006646
X        5.58355000      27.91775000      21.53655000      -0.14006646
W        3.19060000      25.52480000      22.33420000      -0.22145376
W        4.78590000      27.12010000      23.92950000      -0.40789490
X        3.98825000      26.32245000      23.13185000      -0.31624313
X        5.58355000      26.32245000      23.13185000      -0.31624313
X        3.98825000      27.91775000      23.13185000      -0.31624313
X        3.98825000      26.32245000      24.72715000      -0.47518702
X        5.58355000      27.91775000      23.13185000      -0.31624313
X        5.58355000      26.32245000      24.72715000      -0.47518702
X        3.98825000      27.91775000      24.72715000      -0.47518702
X        5.58355000      27.91775000      24.72715000      -0.47518702
W        3.19060000      25.52480000      25.52480000      -0.50000000
W        4.78590000      27.12010000      27.12010000      -0.40789490
X        3.98825000      26.32245000      26.32245000      -0.47518702
X        5.58355000      26.32245000      26.32245000      -0.47518702
X        3.98825000      27.91775000      26.32245000      -0.47518702
X        3.98825000      26.32245000      27.91775000      -0.31624313
X        5.58355000      27.91775000      26.32245000      -0.47518702
X        5.58355000      26.32245000      27.91775000      -0.31624313
X        3.98825000      27.91775000      27.91775000      -0.31624313
X        5.58355000      27.91775000      27.91775000      -0.31624313
W        3.19060000      25.52480000      28.71540000      -0.22145376
W        4.78590000      27.12010000      30.31070000      -0.08001555
X        3.98825000      26.32245000      29.51305000      -0.14006646
X        5.58355000      26.32245000      29.51305000      -0.14006646
X        3.98825000      27.91775000      29.51305000      -0.14006646
X        3.98825000      26.32245000      31.10835000      -0.04128609
X        5.58355000      27.91775000      29.51305000      -0.14006646
X        5.58355000      26.32245000      31.10835000      -0.04128609
X        3.98825000      27.91775000      31.10835000      -0.04128609
X        5.58355000      27.91775000      31.10835000      -0.04128609
W        3.19060000      25.52480000      31.90600000      -0.01924076
W        4.78590000      27.12010000      33.50130000      -0.00307912
X        3.98825000      26.32245000      32.70365000      -0.00809897
X        5.58355000      26.32245000      32.70365000      -0.00809897
X        3.98825000      27.91775000      32.70365000      -0.00809897
X        3.98825000      26.32245000      34.29895000      -0.00105733
X        5.58355000      27.91775000      32.70365000      -0.00809897
X        5.58355000      26.32245000      34.29895000      -0.00105733
X        3.98825000      27.91775000      34.29895000      -0.00105733
X        5.58355000      27.91775000      34.29895000      -0.00105733
W        3.19060000      25.52480000      35.09660000      -0.00032793
W        4.78590000      27.12010000      36.69190000      -0.00002324
X        3.98825000      26.32245000      35.89425000      -0.00009187
X        5.58355000      26.32245000      35.89425000      -0.00009187
X        3.98825000      27.91775000      35.89425000      -0.00009187
X        3.98825000      26.32245000      37.48955000      -0.00000531
X        5.58355000      27.91775000      35.89425000      -0.00009187
X        5.58355000      26.32245000      37.48955000      -0.00000531
X        3.98825000      27.91775000      37.48955000      -0.00000531
X        5.58355000      27.91775000      37.48955000      -0.00000531
Ta       3.19060000      25.52480000      38.28720000      -0.00000110
W        4.78590000      27.12010000      39.88250000      -0.00000003
X        3.98825000      26.32245000      39.08485000      -0.00000020
X        5.58355000      26.32245000      39.08485000      -0.00000020
X        3.98825000      27.91775000      39.08485000      -0.00000020
X        3.98825000      26.32245000      40.68015000      -0.00000001
X        5.58355000      27.91775000      39.08485000      -0.00000020
X        5.58355000      26.32245000      40.68015000      -0.00000001
X        3.98825000      27.91775000      40.68015000      -0.00000001
X        5.58355000      27.91775000      40.68015000      -0.00000001
W        3.19060000      25.52480000      41.47780000      -0.00000000
W        4.78590000      27.12010000      43.07310000      -0.00000000
X        3.98825000      26.32245000      42.27545000      -0.00000000
X        5.58355000      26.32245000      42.27545000      -0.00000000
X        3.98825000      27.91775000      42.27545000      -0.00000000
X        3.98825000      26.32245000      43.87075000      -0.00000000
X        5.58355000      27.91775000      42.27545000      -0.00000000
X        5.58355000      26.32245000      43.87075000      -0.00000000
X        3.98825000      27.91775000      43.87075000      -0.00000000
X        5.58355000      27.91775000      43.87075000      -0.00000000
W        3.19060000      25.52480000      44.66840000      -0.00000000
W        4.78590000      27.12010000      46.26370000      -0.00000000
X        3.98825000      26.32245000      45.46605000      -0.00000000
X        5.58355000      26.32245000      45.46605000      -0.00000000
X        3.98825000      27.91775000      45.46605000      -0.00000000
X        3.98825000      26.32245000      47.06135000      -0.00000000
X        5.58355000      27.91775000      45.46605000      -0.00000000
X        5.58355000      26.32245000      47.06135000      -0.00000000
X        3.98825000      27.91775000      47.06135000      -0.00000000
X        5.58355000      27.91775000      47.06135000      -0.00000000
W        3.19060000      25.52480000      47.85900000      -0.00000000
W        4.78590000      27.12010000      49.45430000      -0.00000000
X        3.98825000      26.32245000      48.65665000      -0.00000000
X        5.58355000      26.32245000      48.65665000      -0.00000000
X        3.98825000      27.91775000      48.65665000      -0.00000000
X        3.98825000      26.32245000      50.25195000      -0.00000000
X        5.58355000      27.91775000      48.65665000      -0.00000000
X        5.58355000      26.32245000      50.25195000      -0.00000000
X        3.98825000      27.91775000      50.25195000      -0.00000000
X        5.58355000      27.91775000      50.25195000      -0.00000000
W        3.19060000      28.71540000       0.00000000      -0.00000000
W        4.78590000      30.31070000       1.59530000      -0.00000000
X        3.98825000      29.51305000       0.79765000      -0.00000000
X        5.58355000      29.51305000       0.79765000      -0.00000000
X        3.98825000      31.10835000       0.79765000      -0.00000000
X        3.98825000      29.51305000       2.39295000      -0.00000000
X        5.58355000      31.10835000       0.79765000      -0.00000000
X        5.58355000      29.51305000       2.39295000      -0.00000000
X        3.98825000      31.10835000       2.39295000      -0.00000000
X        5.58355000      31.10835000       2.39295000      -0.00000000
Ta       3.19060000      28.71540000       3.19060000      -0.00000000
W        4.78590000      30.31070000       4.78590000      -0.00000000
X        3.98825000      29.51305000       3.98825000      -0.00000000
X        5.58355000      29.51305000       3.98825000      -0.00000000
X        3.98825000      31.10835000       3.98825000      -0.00000000
X        3.98825000      29.51305000       5.58355000      -0.00000000
X        5.58355000      31.10835000       3.98825000      -0.00000000
X        5.58355000      29.51305000       5.58355000      -0.00000000
X        3.98825000      31.10835000       5.58355000      -0.00000000
X        5.58355000      31.10835000       5.58355000      -0.00000000
W        3.19060000      28.71540000       6.38120000      -0.00000000
Ta       4.78590000      30.31070000       7.97650000      -0.00000000
X        3.98825000      29.51305000       7.17885000      -0.00000000
X        5.58355000      29.51305000       7.17885000      -0.00000000
X        3.98825000      31.10835000       7.17885000      -0.00000000
X        3.98825000      29.51305000       8.77415000      -0.00000000
X        5.58355000      31.10835000       7.17885000      -0.00000000
X        5.58355000      29.51305000       8.77415000      -0.00000000
X        3.98825000      31.10835000       8.77415000      -0.00000000
X        5.58355000      31.10835000       8.77415000      -0.00000000
W        3.19060000      28.71540000       9.57180000      -0.00000000
W        4.78590000      30.31070000      11.16710000      -0.00000003
X        3.98825000      29.51305000      10.36945000      -0.00000001
X        5.58355000      29.51305000      10.36945000      -0.00000001
X        3.98825000      31.10835000      10.36945000      -0.00000001
X        3.98825000      29.51305000      11.96475000      -0.00000020
X        5.58355000      31.10835000      10.36945000      -0.00000001
X        5.58355000      29.51305000      11.96475000      -0.00000020
X        3.98825000      31.10835000      11.96475000      -0.00000020
X        5.58355000      31.10835000      11.96475000      -0.00000020
W        3.19060000      28.71540000      12.76240000      -0.00000110
W        4.78590000      30.31070000      14.35770000      -0.00002324
X        3.98825000      29.51305000      13.56005000      -0.00000531
X        5.58355000      29.51305000      13.56005000      -0.00000531
X        3.98825000      31.10835000      13.56005000      -0.00000531
X        3.98825000      29.51305000      15.15535000      -0.00009187
X        5.58355000      31.10835000      13.56005000      -0.00000531
X        5.58355000      29.51305000      15.15535000      -0.00009187
X        3.98825000      31.10835000      15.15535000      -0.00009187
X        5.58355000      31.10835000      15.15535000      -0.00009187
Ta       3.19060000      28.71540000      15.95300000      -0.00032793
W        4.78590000      30.31070000      17.54830000      -0.00307912
X        3.98825000      29.51305000      16.75065000      -0.00105733
X        5.58355000      29.51305000      16.75065000      -0.00105733
X        3.98825000      31.10835000      16.75065000      -0.00105733
X        3.98825000      29.51305000      18.34595000      -0.00809897
X        5.58355000      31.10835000      16.75065000      -0.00105733
X        5.58355000      29.51305000      18.34595000      -0.00809897
X        3.98825000      31.10835000      18.34595000      -0.00809897
X        5.58355000      31.10835000      18.34595000      -0.00809897
W        3.19060000      28.71540000      19.14360000      -0.01924076
Ta       4.78590000      30.31070000      20.73890000      -0.08001555
X        3.98825000      29.51305000      19.94125000      -0.04128609
X        5.58355000      29.51305000      19.94125000      -0.04128609
X        3.98825000      31.10835000      19.94125000      -0.04128609
X        3.98825000      29.51305000      21.53655000      -0.14006646
X        5.58355000      31.10835000      19.94125000      -0.04128609
X        5.58355000      29.51305000      21.53655000      -0.14006646
X        3.98825000      31.10835000      21.53655000      -0.14006646
X        5.58355000      31.10835000      21.53655000      -0.14006646
W        3.19060000      28.71540000      22.33420000      -0.22145376
W        4.78590000      30.31070000      23.92950000      -0.40789490
X        3.98825000      29.51305000      23.13185000      -0.31624313
X        5.58355000      29.51305000      23.13185000      -0.31624313
X        3.98825000      31.10835000      23.13185000      -0.31624313
X        3.98825000      29.51305000      24.72715000      -0.47518702
X        5.58355000      31.10835000      23.13185000      -0.31624313
X        5.58355000      29.51305000      24.72715000      -0.47518702
X        3.98825000      31.10835000      24.72715000      -0.47518702
X        5.58355000      31.10835000      24.72715000      -0.47518702
W        3.19060000      28.71540000      25.52480000      -0.50000000
W        4.78590000      30.31070000      27.12010000      -0.40789490
X        3.98825000      29.51305000      26.32245000      -0.47518702
X        5.58355000      29.51305000      26.32245000      -0.47518702
X        3.98825000      31.10835000      26.32245000      -0.47518702
X        3.98825000      29.51305000      27.91775000      -0.31624313
X        5.58355000      31.10835000      26.32245000      -0.47518702
X        5.58355000      29.51305000      27.91775000      -0.31624313
X        3.98825000      31.10835000      27.91775000      -0.31624313
X        5.58355000      31.10835000      27.91775000      -0.31624313
W        3.19060000      28.71540000      28.71540000      -0.22145376
W        4.78590000      30.31070000      30.31070000      -0.08001555
X        3.98825000      29.51305000      29.51305000      -0.14006646
X        5.58355000      29.51305000      29.51305000      -0.14006646
X        3.98825000      31.10835000      29.51305000      -0.14006646
X        3.98825000      29.51305000      31.10835000      -0.04128609
X        5.58355000      31.10835000      29.51305000      -0.14006646
X        5.58355000      29.51305000      31.10835000      -0.04128609
X        3.98825000      31.10835000      31.10835000      -0.04128609
X        5.58355000      31.10835000      31.10835000      -0.04128609
W        3.19060000      28.71540000      31.90600000      -0.01924076
W        4.78590000      30.31070000      33.50130000      -0.00307912
X        3.98825000      29.51305000      32.70365000      -0.00809897
X        5.58355000      29.51305000      32.70365000      -0.00809897
X        3.98825000      31.10835000      32.70365000      -0.00809897
X        3.98825000      29.51305000      34.29895000      -0.00105733
X        5.58355000      31.10835000      32.70365000      -0.00809897
X        5.58355000      29.51305000      34.29895000      -0.00105733
X        3.98825000      31.10835000      34.29895000      -0.00105733
X        5.58355000      31.10835000      34.29895000      -0.00105733
W        3.19060000      28.71540000      35.09660000      -0.00032793
W        4.78590000      30.31070000      36.69190000      -0.00002324
X        3.98825000      29.51305000      35.89425000      -0.00009187
X        5.58355000      29.51305000      35.89425000      -0.00009187
X        3.98825000      31.10835000      35.89425000      -0.00009187
X        3.98825000      29.51305000      37.48955000      -0.00000531
X        5.58355000      31.10835000      35.89425000      -0.00009187
X        5.58355000      29.51305000      37.48955000      -0.00000531
X        3.98825000      31.10835000      37.48955000      -0.00000531
X        5.58355000      31.10835000      37.48955000      -0.00000531
W        3.19060000      28.71540000      38.28720000      -0.00000110
W        4.78590000      30.31070000      39.88250000      -0.00000003
X        3.98825000      29.51305000      39.08485000      -0.00000020
X        5.58355000      29.51305000      39.08485000      -0.00000020
X        3.98825000      31.10835000      39.08485000      -0.00000020
X        3.98825000      29.51305000      40.68015000      -0.00000001
X        5.58355000      31.10835000      39.08485000      -0.00000020
X        5.58355000      29.51305000      40.68015000      -0.00000001
X        3.98825000      31.10835000      40.68015000      -0.00000001
X        5.58355000      31.10835000      40.68015000      -0.00000001
Ta       3.19060000      28.71540000      41.47780000      -0.00000000
Ta       4.78590000      30.31070000      43.07310000      -0.00000000
X        3.98825000      29.51305000      42.27545000      -0.00000000
X        5.58355000      29.51305000      42.27545000      -0.00000000
X        3.98825000      31.10835000      42.27545000      -0.00000000
X        3.98825000      29.51305000      43.87075000      -0.00000000
X        5.58355000      31.10835000      42.27545000      -0.00000000
X        5.58355000      29.51305000      43.87075000      -0.00000000
X        3.98825000      31.10835000      43.87075000      -0.00000000
X        5.58355000      31.10835000      43.87075000      -0.00000000
W        3.19060000      28.71540000      44.66840000      -0.00000000
W        4.78590000      30.31070000      46.26370000      -0.00000000
X        3.98825000      29.51305000      45.46605000      -0.00000000
X        5.58355000      29.51305000      45.46605000      -0.00000000
X        3.98825000      31.10835000      45.46605000      -0.00000000
X        3.98825000      29.51305000      47.06135000      -0.00000000
X        5.58355000      31.10835000      45.46605000      -0.00000000
X        5.58355000      29.51305000      47.06135000      -0.00000000
X        3.98825000      31.10835000      47.06135000      -0.00000000
X        5.58355000      31.10835000      47.06135000      -0.00000000
W        3.19060000      28.71540000      47.85900000      -0.00000000
W        4.78590000      30.31070000      49.45430000      -0.00000000
X        3.98825000      29.51305000      48.65665000      -0.00000000
X        5.58355000      29.51305000      48.65665000      -0.00000000
X        3.98825000      31.10835000      48.65665000      -0.00000000
X        3.98825000      29.51305000      50.25195000      -0.00000000
X        5.58355000      31.10835000      48.65665000      -0.00000000
X        5.58355000      29.51305000      50.25195000      -0.00000000
X        3.98825000      31.10835000      50.25195000      -0.00000000
X        5.58355000      31.10835000      50.25195000      -0.00000000
W        3.19060000      31.90600000       0.00000000      -0.00000000
Ta       4.78590000      33.50130000       1.59530000      -0.00000000
X        3.98825000      32.70365000       0.79765000      -0.00000000
X        5.58355000      32.70365000       0.79765000      -0.00000000
X        3.98825000      34.29895000       0.79765000      -0.00000000
X        3.98825000      32.70365000       2.39295000      -0.00000000
X        5.58355000      34.29895000       0.79765000      -0.00000000
X        5.58355000      32.70365000       2.39295000      -0.00000000
X        3.98825000      34.29895000       2.39295000      -0.00000000
X        5.58355000      34.29895000       2.39295000      -0.00000000
Ta       3.19060000      31.90600000       3.19060000      -0.00000000
W        4.78590000      33.50130000       4.78590000      -0.00000000
X        3.98825000      32.70365000       3.98825000      -0.00000000
X        5.58355000      32.70365000       3.98825000      -0.00000000
X        3.98825000      34.29895000       3.98825000      -0.00000000
X        3.98825000      32.70365000       5.58355000      -0.00000000
X        5.58355000      34.29895000       3.98825000      -0.00000000
X        5.58355000      32.70365000       5.58355000      -0.00000000
X        3.98825000      34.29895000       5.58355000      -0.00000000
X        5.58355000      34.29895000       5.58355000      -0.00000000
Ta       3.19060000      31.90600000       6.38120000      -0.00000000
W        4.78590000      33.50130000       7.97650000      -0.00000000
X        3.98825000      32.70365000       7.17885000      -0.00000000
X        5.58355000      32.70365000       7.17885000      -0.00000000
X        3.98825000      34.29895000       7.17885000      -0.00000000
X        3.98825000      32.70365000       8.77415000      -0.00000000
X        5.58355000      34.29895000       7.17885000      -0.00000000
X        5.58355000      32.70365000       8.77415000      -0.00000000
X        3.98825000      34.29895000       8.77415000      -0.00000000
X        5.58355000      34.29895000       8.77415000      -0.00000000
Ta       3.19060000      31.90600000       9.57180000      -0.00000000
W        4.78590000      33.50130000      11.16710000      -0.00000003
X        3.98825000      32.70365000      10.36945000      -0.00000001
X        5.58355000      32.70365000      10.36945000      -0.00000001
X        3.98825000      34.29895000      10.36945000      -0.00000001
X        3.98825000      32.70365000      11.96475000      -0.00000020
X        5.58355000      34.29895000      10.36945000      -0.00000001
X        5.58355000      32.70365000      11.96475000      -0.00000020
X        3.98825000      34.29895000      11.96475000      -0.00000020
X        5.58355000      34.29895000      11.96475000      -0.00000020
W        3.19060000      31.90600000      12.76240000      -0.00000110
W        4.78590000      33.50130000      14.35770000      -0.00002324
X        3.98825000      32.70365000      13.56005000      -0.00000531
X        5.58355000      32.70365000      13.56005000      -0.00000531
X        3.98825000      34.29895000      13.56005000      -0.00000531
X        3.98825000      32.70365000      15.15535000      -0.00009187
X        5.58355000      34.29895000      13.56005000      -0.00000531
X        5.58355000      32.70365000      15.15535000      -0.00009187
X        3.98825000      34.29895000      15.15535000      -0.00009187
X        5.58355000      34.29895000      15.15535000      -0.00009187
W        3.19060000      31.90600000      15.95300000      -0.00032793
W        4.78590000      33.50130000      17.54830000      -0.00307912
X        3.98825000      32.70365000      16.75065000      -0.00105733
X        5.58355000      32.70365000      16.75065000      -0.00105733
X        3.98825000      34.29895000      16.75065000      -0.00105733
X        3.98825000      32.70365000      18.34595000      -0.00809897
X        5.58355000      34.29895000      16.75065000      -0.00105733
X        5.58355000      32.70365000      18.34595000      -0.00809897
X        3.98825000      34.29895000      18.34595000      -0.00809897
X        5.58355000      34.29895000      18.34595000      -0.00809897
Ta       3.19060000      31.90600000      19.14360000      -0.01924076
W        4.78590000      33.50130000      20.73890000      -0.08001555
X        3.98825000      32.70365000      19.94125000      -0.04128609
X        5.58355000      32.70365000      19.94125000      -0.04128609
X        3.98825000      34.29895000      19.94125000      -0.04128609
X        3.98825000      32.70365000      21.53655000      -0.14006646
X        5.58355000      34.29895000      19.94125000      -0.04128609
X        5.58355000      32.70365000      21.53655000      -0.14006646
X        3.98825000      34.29895000      21.53655000      -0.14006646
X        5.58355000      34.29895000      21.53655000      -0.14006646
W        3.19060000      31.90600000      22.33420000      -0.22145376
W        4.78590000      33.50130000      23.92950000      -0.40789490
X        3.98825000      32.70365000      23.13185000      -0.31624313
X        5.58355000      32.70365000      23.13185000      -0.31624313
X        3.98825000      34.29895000      23.13185000      -0.31624313
X        3.98825000      32.70365000      24.72715000      -0.47518702
X        5.58355000      34.29895000      23.13185000      -0.31624313
X        5.58355000      32.70365000      24.72715000      -0.47518702
X        3.98825000      34.29895000      24.72715000      -0.47518702
X        5.58355000      34.29895000      24.72715000      -0.47518702
W        3.19060000      31.90600000      25.52480000      -0.50000000
W        4.78590000      33.50130000      27.12010000      -0.40789490
X        3.98825000      32.70365000      26.32245000      -0.47518702
X        5.58355000      32.70365000      26.32245000      -0.47518702
X        3.98825000      34.29895000      26.32245000      -0.47518702
X        3.98825000      32.70365000      27.91775000      -0.31624313
X        5.58355000      34.29895000      26.32245000      -0.47518702
X        5.58355000      32.70365000      27.91775000      -0.31624313
X        3.98825000      34.29895000      27.91775000      -0.31624313
X        5.58355000      34.29895000      27.91775000      -0.31624313
Ta       3.19060000      31.90600000      28.71540000      -0.22145376
W        4.78590000      33.50130000      30.31070000      -0.08001555
X        3.98825000      32.70365000      29.51305000      -0.14006646
X        5.58355000      32.70365000      29.51305000      -0.14006646
X        3.98825000      34.29895000      29.51305000      -0.14006646
X        3.98825000      32.70365000      31.10835000      -0.04128609
X        5.58355000      34.29895000      29.51305000      -0.14006646
X        5.58355000      32.70365000      31.10835000      -0.04128609
X        3.98825000      34.29895000      31.10835000      -0.04128609
X        5.58355000      34.29895000      31.10835000      -0.04128609
W        3.19060000      31.90600000      31.90600000      -0.01924076
W        4.78590000      33.50130000      33.50130000      -0.00307912
X        3.98825000      32.70365000      32.70365000      -0.00809897
X        5.58355000      32.70365000      32.70365000      -0.00809897
X        3.98825000      34.29895000      32.70365000      -0.00809897
X        3.98825000      32.70365000      34.29895000      -0.00105733
X        5.58355000      34.29895000      32.70365000      -0.00809897
X        5.58355000      32.70365000      34.29895000      -0.00105733
X        3.98825000      34.29895000      34.29895000      -0.00105733
X        5.58355000      34.29895000      34.29895000      -0.00105733
W        3.19060000      31.90600000      35.09660000      -0.00032793
Ta       4.78590000      33.50130000      36.69190000      -0.00002324
X        3.98825000      32.70365000      35.89425000      -0.00009187
X        5.58355000      32.70365000      35.89425000      -0.00009187
X        3.98825000      34.29895000      35.89425000      -0.00009187
X        3.98825000      32.70365000      37.48955000      -0.00000531
X        5.58355000      34.29895000      35.89425000      -0.00009187
X        5.58355000      32.70365000      37.48955000      -0.00000531
X        3.98825000      34.29895000      37.48955000      -0.00000531
X        5.58355000      34.29895000      37.48955000      -0.00000531
W        3.19060000      31.90600000      38.28720000      -0.00000110
W        4.78590000      33.50130000      39.88250000      -0.00000003
X        3.98825000      32.70365000      39.08485000      -0.00000020
X        5.58355000      32.70365000      39.08485000      -0.00000020
X        3.98825000      34.29895000      39.08485000      -0.00000020
X        3.98825000      32.70365000      40.68015000      -0.00000001
X        5.58355000      34.29895000      39.08485000      -0.00000020
X        5.58355000      32.70365000      40.68015000      -0.00000001
X        3.98825000      34.29895000      40.68015000      -0.00000001
X        5.58355000      34.29895000      40.68015000      -0.00000001
W        3.19060000      31.90600000      41.47780000      -0.00000000
W        4.78590000      33.50130000      43.07310000      -0.00000000
X        3.98825000      32.70365000      42.27545000      -0.00000000
X        5.58355000      32.70365000      42.27545000      -0.00000000
X        3.98825000      34.29895000      42.27545000      -0.00000000
X        3.98825000      32.70365000      43.87075000      -0.00000000
X        5.58355000      34.29895000      42.27545000      -0.00000000
X        5.58355000      32.70365000      43.87075000      -0.00000000
X        3.98825000      34.29895000      43.87075000      -0.00000000
X        5.58355000      34.29895000      43.87075000      -0.00000000
W        3.19060000      31.90600000      44.66840000      -0.00000000
W        4.78590000      33.50130000      46.26370000      -0.00000000
X        3.98825000      32.70365000      45.46605000      -0.00000000
X        5.58355000      32.70365000      45.46605000      -0.00000000
X        3.98825000      34.29895000      45.46605000      -0.00000000
X        3.98825000      32.70365000      47.06135000      -0.00000000
X        5.58355000      34.29895000      45.46605000      -0.00000000
X        5.58355000      32.70365000      47.06135000      -0.00000000
X        3.98825000      34.29895000      47.06135000      -0.00000000
X        5.58355000      34.29895000      47.06135000      -0.00000000
W        3.19060000      31.90600000      47.85900000      -0.00000000
Ta       4.78590000      33.50130000      49.45430000      -0.00000000
X        3.98825000      32.70365000      48.65665000      -0.00000000
X        5.58355000      32.70365000      48.65665000      -0.00000000
X        3.98825000      34.29895000      48.65665000      -0.00000000
X        3.98825000      32.70365000      50.25195000      -0.00000000
X        5.58355000      34.29895000      48.65665000      -0.00000000
X        5.58355000      32.70365000      50.25195000      -0.00000000
X        3.98825000      34.29895000      50.25195000      -0.00000000
X        5.58355000      34.29895000      50.25195000      -0.00000000
W        3.19060000      35.09660000       0.00000000      -0.00000000
W        4.78590000      36.69190000       1.59530000      -0.00000000
X        3.98825000      35.89425000       0.79765000      -0.00000000
X        5.58355000      35.89425000       0.79765000      -0.00000000
X        3.98825000      37.48955000       0.79765000      -0.00000000
X        3.98825000      35.89425000       2.39295000      -0.00000000
X        5.58355000      37.48955000       0.79765000      -0.00000000
X        5.58355000      35.89425000       2.39295000      -0.00000000
X        3.98825000      37.48955000       2.39295000      -0.00000000
X        5.58355000      37.48955000       2.39295000      -0.00000000
W        3.19060000      35.09660000       3.19060000      -0.00000000
W        4.78590000      36.69190000       4.78590000      -0.00000000
X        3.98825000      35.89425000       3.98825000      -0.00000000
X        5.58355000      35.89425000       3.98825000      -0.00000000
X        3.98825000      37.48955000       3.98825000      -0.00000000
X        3.98825000      35.89425000       5.58355000      -0.00000000
X        5.58355000      37.48955000       3.98825000      -0.00000000
X        5.58355000      35.89425000       5.58355000      -0.00000000
X        3.98825000      37.48955000       5.58355000      -0.00000000
X        5.58355000      37.48955000       5.58355000      -0.00000000
W        3.19060000      35.09660000       6.38120000      -0.00000000
W        4.78590000      36.69190000       7.97650000      -0.00000000
X        3.98825000      35.89425000       7.17885000      -0.00000000
X        5.58355000      35.89425000       7.17885000      -0.00000000
X        3.98825000      37.48955000       7.17885000      -0.00000000
X        3.98825000      35.89425000       8.77415000      -0.00000000
X        5.58355000      37.48955000       7.17885000      -0.00000000
X        5.58355000      35.89425000       8.77415000      -0.00000000
X        3.98825000      37.48955000       8.77415000      -0.00000000
X        5.58355000      37.48955000       8.77415000      -0.00000000
W        3.19060000      35.09660000       9.57180000      -0.00000000
W        4.78590000      36.69190000      11.16710000      -0.00000003
X        3.98825000      35.89425000      10.36945000      -0.00000001
X        5.58355000      35.89425000      10.36945000      -0.00000001
X        3.98825000      37.48955000      10.36945000      -0.00000001
X        3.98825000      35.89425000      11.96475000      -0.00000020
X        5.58355000      37.48955000      10.36945000      -0.00000001
X        5.58355000      35.89425000      11.96475000      -0.00000020
X        3.98825000      37.48955000      11.96475000      -0.00000020
X        5.58355000      37.48955000      11.96475000      -0.00000020
W        3.19060000      35.09660000      12.76240000      -0.00000110
Ta       4.78590000      36.69190000      14.35770000      -0.00002324
X        3.98825000      35.89425000      13.56005000      -0.00000531
X        5.58355000      35.89425000      13.56005000      -0.00000531
X        3.98825000      37.48955000      13.56005000      -0.00000531
X        3.98825000      35.89425000      15.15535000      -0.00009187
X        5.58355000      37.48955000      13.56005000      -0.00000531
X        5.58355000      35.89425000      15.15535000      -0.00009187
X        3.98825000      37.48955000      15.15535000      -0.00009187
X        5.58355000      37.48955000      15.15535000      -0.00009187
W        3.19060000      35.09660000      15.95300000      -0.00032793
W        4.78590000      36.69190000      17.54830000      -0.00307912
X        3.98825000      35.89425000      16.75065000      -0.00105733
X        5.58355000      35.89425000      16.75065000      -0.00105733
X        3.98825000      37.48955000      16.75065000      -0.00105733
X        3.98825000      35.89425000      18.34595000      -0.00809897
X        5.58355000      37.48955000      16.75065000      -0.00105733
X        5.58355000      35.89425000      18.34595000      -0.00809897
X        3.98825000      37.48955000      18.34595000      -0.00809897
X        5.58355000      37.48955000      18.34595000      -0.00809897
W        3.19060000      35.09660000      19.14360000      -0.01924076
W        4.78590000      36.69190000      20.73890000      -0.08001555
X        3.98825000      35.89425000      19.94125000      -0.04128609
X        5.58355000      35.89425000      19.94125000      -0.04128609
X        3.98825000      37.48955000      19.94125000      -0.04128609
X        3.98825000      35.89425000      21.53655000      -0.14006646
X        5.58355000      37.48955000      19.94125000      -0.04128609
X        5.58355000      35.89425000      21.53655000      -0.14006646
X        3.98825000      37.48955000      21.53655000      -0.14006646
X        5.58355000      37.48955000      21.53655000      -0.14006646
W        3.19060000      35.09660000      22.33420000      -0.22145376
W        4.78590000      36.69190000      23.92950000      -0.40789490
X        3.98825000      35.89425000      23.13185000      -0.31624313
X        5.58355000      35.89425000      23.13185000      -0.31624313
X        3.98825000      37.48955000      23.13185000      -0.31624313
X        3.98825000      35.89425000      24.72715000      -0.47518702
X        5.58355000      37.48955000      23.13185000      -0.31624313
X        5.58355000      35.89425000      24.72715000      -0.47518702
X        3.98825000      37.48955000      24.72715000      -0.47518702
X        5.58355000      37.48955000      24.72715000      -0.47518702
W        3.19060000      35.09660000      25.52480000      -0.50000000
W        4.78590000      36.69190000      27.12010000      -0.40789490
X        3.98825000      35.89425000      26.32245000      -0.47518702
X        5.58355000      35.89425000      26.32245000      -0.47518702
X        3.98825000      37.48955000      26.32245000      -0.47518702
X        3.98825000      35.89425000      27.91775000      -0.31624313
X        5.58355000      37.48955000      26.32245000      -0.47518702
X        5.58355000      35.89425000      27.91775000      -0.31624313
X        3.98825000      37.48955000      27.91775000      -0.31624313
X        5.58355000      37.48955000      27.91775000      -0.31624313
W        3.19060000      35.09660000      28.71540000      -0.22145376
W        4.78590000      36.69190000      30.31070000      -0.08001555
X        3.98825000      35.89425000      29.51305000      -0.14006646
X        5.58355000      35.89425000      29.51305000      -0.14006646
X        3.98825000      37.48955000      29.51305000      -0.14006646
X        3.98825000      35.89425000      31.10835000      -0.04128609
X        5.58355000      37.48955000      29.51305000      -0.14006646
X        5.58355000      35.89425000      31.10835000      -0.04128609
X        3.98825000      37.48955000      31.10835000      -0.04128609
X        5.58355000      37.48955000      31.10835000      -0.04128609
W        3.19060000      35.09660000      31.90600000      -0.01924076
W        4.78590000      36.69190000      33.50130000      -0.00307912
X        3.98825000      35.89425000      32.70365000      -0.00809897
X        5.58355000      35.89425000      32.70365000      -0.00809897
X        3.98825000      37.48955000      32.70365000      -0.00809897
X        3.98825000      35.89425000      34.29895000      -0.00105733
X        5.58355000      37.48955000      32.70365000      -0.00809897
X        5.58355000      35.89425000      34.29895000      -0.00105733
X        3.98825000      37.48955000      34.29895000      -0.00105733
X        5.58355000      37.48955000      34.29895000      -0.00105733
W        3.19060000      35.09660000      35.09660000      -0.00032793
W        4.78590000      36.69190000      36.69190000      -0.00002324
X        3.98825000      35.89425000      35.89425000      -0.00009187
X        5.58355000      35.89425000      35.89425000      -0.00009187
X        3.98825000      37.48955000      35.89425000      -0.00009187
X        3.98825000      35.89425000      37.48955000      -0.00000531
X        5.58355000      37.48955000      35.89425000      -0.00009187
X        5.58355000      35.89425000      37.48955000      -0.00000531
X        3.98825000      37.48955000      37.48955000      -0.00000531
X        5.58355000      37.48955000      37.48955000      -0.00000531
W        3.19060000      35.09660000      38.28720000      -0.00000110
W        4.78590000      36.69190000      39.88250000      -0.00000003
X        3.98825000      35.89425000      39.08485000      -0.00000020
X        5.58355000      35.89425000      39.08485000      -0.00000020
X        3.98825000      37.48955000      39.08485000      -0.00000020
X        3.98825000      35.89425000      40.68015000      -0.00000001
X        5.58355000      37.48955000      39.08485000      -0.00000020
X        5.58355000      35.89425000      40.68015000      -0.00000001
X        3.98825000      37.48955000      40.68015000      -0.00000001
X        5.58355000      37.48955000      40.68015000      -0.00000001
W        3.19060000      35.09660000      41.47780000      -0.00000000
Ta       4.78590000      36.69190000      43.07310000      -0.00000000
X        3.98825000      35.89425000      42.27545000      -0.00000000
X        5.58355000      35.89425000      42.27545000      -0.00000000
X        3.98825000      37.48955000      42.27545000      -0.00000000
X        3.98825000      35.89425000      43.87075000      -0.00000000
X        5.58355000      37.48955000      42.27545000      -0.00000000
X        5.58355000      35.89425000      43.87075000      -0.00000000
X        3.98825000      37.48955000      43.87075000      -0.00000000
X        5.58355000      37.48955000      43.87075000      -0.00000000
W        3.19060000      35.09660000      44.66840000      -0.00000000
W        4.78590000      36.69190000      46.26370000      -0.00000000
X        3.98825000      35.89425000      45.46605000      -0.00000000
X        5.58355000      35.89425000      45.46605000      -0.00000000
X        3.98825000      37.48955000      45.46605000      -0.00000000
X        3.98825000      35.89425000      47.06135000      -0.00000000
X        5.58355000      37.48955000      45.46605000      -0.00000000
X        5.58355000      35.89425000      47.06135000      -0.00000000
X        3.98825000      37.48955000      47.06135000      -0.00000000
X        5.58355000      37.48955000      47.06135000      -0.00000000
W        3.19060000      35.09660000      47.85900000      -0.00000000
W        4.78590000      36.69190000      49.45430000      -0.00000000
X        3.98825000      35.89425000      48.65665000      -0.00000000
X        5.58355000      35.89425000      48.65665000      -0.00000000
X        3.98825000      37.48955000      48.65665000      -0.00000000
X        3.98825000      35.89425000      50.25195000      -0.00000000
X        5.58355000      37.48955000      48.65665000      -0.00000000
X        5.58355000      35.89425000      50.25195000      -0.00000000
X        3.98825000      37.48955000      50.25195000      -0.00000000
X        5.58355000      37.48955000      50.25195000      -0.00000000
Ta       3.19060000      38.28720000       0.00000000      -0.00000000
W        4.78590000      39.88250000       1.59530000      -0.00000000
X        3.98825000      39.08485000       0.79765000      -0.00000000
X        5.58355000      39.08485000       0.79765000      -0.00000000
X        3.98825000      40.68015000       0.79765000      -0.00000000
X        3.98825000      39.08485000       2.39295000      -0.00000000
X        5.58355000      40.68015000       0.79765000      -0.00000000
X        5.58355000      39.08485000       2.39295000      -0.00000000
X        3.98825000      40.68015000       2.39295000      -0.00000000
X        5.58355000      40.68015000       2.39295000      -0.00000000
W        3.19060000      38.28720000       3.19060000      -0.00000000
W        4.78590000      39.88250000       4.78590000      -0.00000000
X        3.98825000      39.08485000       3.98825000      -0.00000000
X        5.58355000      39.08485000       3.98825000      -0.00000000
X        3.98825000      40.68015000       3.98825000      -0.00000000
X        3.98825000      39.08485000       5.58355000      -0.00000000
X        5.58355000      40.68015000       3.98825000      -0.00000000
X        5.58355000      39.08485000       5.58355000      -0.00000000
X        3.98825000      40.68015000       5.58355000      -0.00000000
X        5.58355000      40.68015000       5.58355000      -0.00000000
W        3.19060000      38.28720000       6.38120000      -0.00000000
W        4.78590000      39.88250000       7.97650000      -0.00000000
X        3.98825000      39.08485000       7.17885000      -0.00000000
X        5.58355000      39.08485000       7.17885000      -0.00000000
X        3.98825000      40.68015000       7.17885000      -0.00000000
X        3.98825000      39.08485000       8.77415000      -0.00000000
X        5.58355000      40.68015000       7.17885000      -0.00000000
X        5.58355000      39.08485000       8.77415000      -0.00000000
X        3.98825000      40.68015000       8.77415000      -0.00000000
X        5.58355000      40.68015000       8.77415000      -0.00000000
W        3.19060000      38.28720000       9.57180000      -0.00000000
W        4.78590000      39.88250000      11.16710000      -0.00000003
X        3.98825000      39.08485000      10.36945000      -0.00000001
X        5.58355000      39.08485000      10.36945000      -0.00000001
X        3.98825000      40.68015000      10.36945000      -0.00000001
X        3.98825000      39.08485000      11.96475000      -0.00000020
X        5.58355000      40.68015000      10.36945000      -0.00000001
X        5.58355000      39.08485000      11.96475000      -0.00000020
X        3.98825000      40.68015000      11.96475000      -0.00000020
X        5.58355000      40.68015000      11.96475000      -0.00000020
W        3.19060000      38.28720000      12.76240000      -0.00000110
W        4.78590000      39.88250000      14.35770000      -0.00002324
X        3.98825000      39.08485000      13.56005000      -0.00000531
X        5.58355000      39.08485000      13.56005000      -0.00000531
X        3.98825000      40.68015000      13.56005000      -0.00000531
X        3.98825000      39.08485000      15.15535000      -0.00009187
X        5.58355000      40.68015000      13.56005000      -0.00000531
X        5.58355000      39.08485000      15.15535000      -0.00009187
X        3.98825000      40.68015000      15.15535000      -0.00009187
X        5.58355000      40.68015000      15.15535000      -0.00009187
W        3.19060000      38.28720000      15.95300000      -0.00032793
Ta       4.78590000      39.88250000      17.54830000      -0.00307912
X        3.98825000      39.08485000      16.75065000      -0.00105733
X        5.58355000      39.08485000      16.75065000      -0.00105733
X        3.98825000      40.68015000      16.75065000      -0.00105733
X        3.98825000      39.08485000      18.34595000      -0.00809897
X        5.58355000      40.68015000      16.75065000      -0.00105733
X        5.58355000      39.08485000      18.34595000      -0.00809897
X        3.98825000      40.68015000      18.34595000      -0.00809897
X        5.58355000      40.68015000      18.34595000      -0.00809897
W        3.19060000      38.28720000      19.14360000      -0.01924076
W        4.78590000      39.88250000      20.73890000      -0.08001555
X        3.98825000      39.08485000      19.94125000      -0.04128609
X        5.58355000      39.08485000      19.94125000      -0.04128609
X        3.98825000      40.68015000      19.94125000      -0.04128609
X        3.98825000      39.08485000      21.53655000      -0.14006646
X        5.58355000      40.68015000      19.94125000      -0.04128609
X        5.58355000      39.08485000      21.53655000      -0.14006646
X        3.98825000      40.68015000      21.53655000      -0.14006646
X        5.58355000      40.68015000      21.53655000      -0.14006646
W        3.19060000      38.28720000      22.33420000      -0.22145376
W        4.78590000      39.88250000      23.92950000      -0.40789490
X        3.98825000      39.08485000      23.13185000      -0.31624313
X        5.58355000      39.08485000      23.13185000      -0.31624313
X        3.98825000      40.68015000      23.13185000      -0.31624313
X        3.98825000      39.08485000      24.72715000      -0.47518702
X        5.58355000      40.68015000      23.13185000      -0.31624313
X        5.58355000      39.08485000      24.72715000      -0.47518702
X        3.98825000      40.68015000      24.72715000      -0.47518702
X        5.58355000      40.68015000      24.72715000      -0.47518702
W        3.19060000      38.28720000      25.52480000      -0.50000000
W        4.78590000      39.88250000      27.12010000      -0.40789490
X        3.98825000      39.08485000      26.32245000      -0.47518702
X        5.58355000      39.08485000      26.32245000      -0.47518702
X        3.98825000      40.68015000      26.32245000      -0.47518702
X        3.98825000      39.08485000      27.91775000      -0.31624313
X        5.58355000      40.68015000      26.32245000      -0.47518702
X        5.58355000      39.08485000      27.91775000      -0.31624313
X        3.98825000      40.68015000      27.91775000      -0.31624313
X        5.58355000      40.68015000      27.91775000      -0.31624313
W        3.19060000      38.28720000      28.71540000      -0.22145376
W        4.78590000      39.88250000      30.31070000      -0.08001555
X        3.98825000      39.08485000      29.51305000      -0.14006646
X        5.58355000      39.08485000      29.51305000      -0.14006646
X        3.98825000      40.68015000      29.51305000      -0.14006646
X        3.98825000      39.08485000      31.10835000      -0.04128609
X        5.58355000      40.68015000      29.51305000      -0.14006646
X        5.58355000      39.08485000      31.10835000      -0.04128609
X        3.98825000      40.68015000      31.10835000      -0.04128609
X        5.58355000      40.68015000      31.10835000      -0.04128609
W        3.19060000      38.28720000      31.90600000      -0.01924076
W        4.78590000      39.88250000      33.50130000      -0.00307912
X        3.98825000      39.08485000      32.70365000      -0.00809897
X        5.58355000      39.08485000      32.70365000      -0.00809897
X        3.98825000      40.68015000      32.70365000      -0.00809897
X        3.98825000      39.08485000      34.29895000      -0.00105733
X        5.58355000      40.68015000      32.70365000      -0.00809897
X        5.58355000      39.08485000      34.29895000      -0.00105733
X        3.98825000      40.68015000      34.29895000      -0.00105733
X        5.58355000      40.68015000      34.29895000      -0.00105733
W        3.19060000      38.28720000      35.09660000      -0.00032793
Ta       4.78590000      39.88250000      36.69190000      -0.00002324
X        3.98825000      39.08485000      35.89425000      -0.00009187
X        5.58355000      39.08485000      35.89425000      -0.00009187
X        3.98825000      40.68015000      35.89425000      -0.00009187
X        3.98825000      39.08485000      37.48955000      -0.00000531
X        5.58355000      40.68015000      35.89425000      -0.00009187
X        5.58355000      39.08485000      37.48955000      -0.00000531
X        3.98825000      40.68015000      37.48955000      -0.00000531
X        5.58355000      40.68015000      37.48955000      -0.00000531
W        3.19060000      38.28720000      38.28720000      -0.00000110
Ta       4.78590000      39.88250000      39.88250000      -0.00000003
X        3.98825000      39.08485000      39.08485000      -0.00000020
X        5.58355000      39.08485000      39.08485000      -0.00000020
X        3.98825000      40.68015000      39.08485000      -0.00000020
X        3.98825000      39.08485000      40.68015000      -0.00000001
X        5.58355000      40.68015000      39.08485000      -0.00000020
X        5.58355000      39.08485000      40.68015000      -0.00000001
X        3.98825000      40.68015000      40.68015000      -0.00000001
X        5.58355000      40.68015000      40.68015000      -0.00000001
W        3.19060000      38.28720000      41.47780000      -0.00000000
W        4.78590000      39.88250000      43.07310000      -0.00000000
X        3.98825000      39.08485000      42.27545000      -0.00000000
X        5.58355000      39.08485000      42.27545000      -0.00000000
X        3.98825000      40.68015000      42.27545000      -0.00000000
X        3.98825000      39.08485000      43.87075000      -0.00000000
X        5.58355000      40.68015000      42.27545000      -0.00000000
X        5.58355000      39.08485000      43.87075000      -0.00000000
X        3.98825000      40.68015000      43.87075000      -0.00000000
X        5.58355000      40.68015000      43.87075000      -0.00000000
Ta       3.19060000      38.28720000      44.66840000      -0.00000000
W        4.78590000      39.88250000      46.26370000      -0.00000000
X        3.98825000      39.08485000      45.46605000      -0.00000000
X        5.58355000      39.08485000      45.46605000      -0.00000000
X        3.98825000      40.68015000      45.46605000      -0.00000000
X        3.98825000      39.08485000      47.06135000      -0.00000000
X        5.58355000      40.68015000      45.46605000      -0.00000000
X        5.58355000      39.08485000      47.06135000      -0.00000000
X        3.98825000      40.68015000      47.06135000      -0.00000000
X        5.58355000      40.68015000      47.06135000      -0.00000000
W        3.19060000      38.28720000      47.85900000      -0.00000000
W        4.78590000      39.88250000      49.45430000      -0.00000000
X        3.98825000      39.08485000      48.65665000      -0.00000000
X        5.58355000      39.08485000      48.65665000      -0.00000000
X        3.98825000      40.68015000      48.65665000      -0.00000000
X        3.98825000      39.08485000      50.25195000      -0.00000000
X        5.58355000      40.68015000      48.65665000      -0.00000000
X        5.58355000      39.08485000      50.25195000      -0.00000000
X        3.98825000      40.68015000      50.25195000      -0.00000000
X        5.58355000      40.68015000      50.25195000      -0.00000000
W        3.19060000      41.47780000       0.00000000      -0.00000000
W        4.78590000      43.07310000       1.59530000      -0.00000000
X        3.98825000      42.27545000       0.79765000      -0.00000000
X        5.58355000      42.27545000       0.79765000      -0.00000000
X        3.98825000      43.87075000       0.79765000      -0.00000000
X        3.98825000      42.27545000       2.39295000      -0.00000000
X        5.58355000      43.87075000       0.79765000      -0.00000000
X        5.58355000      42.27545000       2.39295000      -0.00000000
X        3.98825000      43.87075000       2.39295000      -0.00000000
X        5.58355000      43.87075000       2.39295000      -0.00000000
W        3.19060000      41.47780000       3.19060000      -0.00000000
W        4.78590000      43.07310000       4.78590000      -0.00000000
X        3.98825000      42.27545000       3.98825000      -0.00000000
X        5.58355000      42.27545000       3.98825000      -0.00000000
X        3.98825000      43.87075000       3.98825000      -0.00000000
X        3.98825000      42.27545000       5.58355000      -0.00000000
X        5.58355000      43.87075000       3.98825000      -0.00000000
X        5.58355000      42.27545000       5.58355000      -0.00000000
X        3.98825000      43.87075000       5.58355000      -0.00000000
X        5.58355000      43.87075000       5.58355000      -0.00000000
W        3.19060000      41.47780000       6.38120000      -0.00000000
W        4.78590000      43.07310000       7.97650000      -0.00000000
X        3.98825000      42.27545000       7.17885000      -0.00000000
X        5.58355000      42.27545000       7.17885000      -0.00000000
X        3.98825000      43.87075000       7.17885000      -0.00000000
X        3.98825000      42.27545000       8.77415000      -0.00000000
X        5.58355000      43.87075000       7.17885000      -0.00000000
X        5.58355000      42.27545000       8.77415000      -0.00000000
X        3.98825000      43.87075000       8.77415000      -0.00000000
X        5.58355000      43.87075000       8.77415000      -0.00000000
W        3.19060000      41.47780000       9.57180000      -0.00000000
Ta       4.78590000      43.07310000      11.16710000      -0.00000003
X        3.98825000      42.27545000      10.36945000      -0.00000001
X        5.58355000      42.27545000      10.36945000      -0.00000001
X        3.98825000      43.87075000      10.36945000      -0.00000001
X        3.98825000      42.27545000      11.96475000      -0.00000020
X        5.58355000      43.87075000      10.36945000      -0.00000001
X        5.58355000      42.27545000      11.96475000      -0.00000020
X        3.98825000      43.87075000      11.96475000      -0.00000020
X        5.58355000      43.87075000      11.96475000      -0.00000020
Ta       3.19060000      41.47780000      12.76240000      -0.00000110
W        4.78590000      43.07310000      14.35770000      -0.00002324
X        3.98825000      42.27545000      13.56005000      -0.00000531
X        5.58355000      42.27545000      13.56005000      -0.00000531
X        3.98825000      43.87075000      13.56005000      -0.00000531
X        3.98825000      42.27545000      15.15535000      -0.00009187
X        5.58355000      43.87075000      13.56005000      -0.00000531
X        5.58355000      42.27545000      15.15535000      -0.00009187
X        3.98825000      43.87075000      15.15535000      -0.00009187
X        5.58355000      43.87075000      15.15535000      -0.00009187
W        3.19060000      41.47780000      15.95300000      -0.00032793
W        4.78590000      43.07310000      17.54830000      -0.00307912
X        3.98825000      42.27545000      16.75065000      -0.00105733
X        5.58355000      42.27545000      16.75065000      -0.00105733
X        3.98825000      43.87075000      16.75065000      -0.00105733
X        3.98825000      42.27545000      18.34595000      -0.00809897
X        5.58355000      43.87075000      16.75065000      -0.00105733
X        5.58355000      42.27545000      18.34595000      -0.00809897
X        3.98825000      43.87075000      18.34595000      -0.00809897
X        5.58355000      43.87075000      18.34595000      -0.00809897
W        3.19060000      41.47780000      19.14360000      -0.01924076
W        4.78590000      43.07310000      20.73890000      -0.08001555
X        3.98825000      42.27545000      19.94125000      -0.04128609
X        5.58355000      42.27545000      19.94125000      -0.04128609
X        3.98825000      43.87075000      19.94125000      -0.04128609
X        3.98825000      42.27545000      21.53655000      -0.14006646
X        5.58355000      43.87075000      19.94125000      -0.04128609
X        5.58355000      42.27545000      21.53655000      -0.14006646
X        3.98825000      43.87075000      21.53655000      -0.14006646
X        5.58355000      43.87075000      21.53655000      -0.14006646
Ta       3.19060000      41.47780000      22.33420000      -0.22145376
Ta       4.78590000      43.07310000      23.92950000      -0.40789490
X        3.98825000      42.27545000      23.13185000      -0.31624313
X        5.58355000      42.27545000      23.13185000      -0.31624313
X        3.98825000      43.87075000      23.13185000      -0.31624313
X        3.98825000      42.27545000      24.72715000      -0.47518702
X        5.58355000      43.87075000      23.13185000      -0.31624313
X        5.58355000      42.27545000      24.72715000      -0.47518702
X        3.98825000      43.87075000      24.72715000      -0.47518702
X        5.58355000      43.87075000      24.72715000      -0.47518702
W        3.19060000      41.47780000      25.52480000      -0.50000000
W        4.78590000      43.07310000      27.12010000      -0.40789490
X        3.98825000      42.27545000      26.32245000      -0.47518702
X        5.58355000      42.27545000      26.32245000      -0.47518702
X        3.98825000      43.87075000      26.32245000      -0.47518702
X        3.98825000      42.27545000      27.91775000      -0.31624313
X        5.58355000      43.87075000      26.32245000      -0.47518702
X        5.58355000      42.27545000      27.91775000      -0.31624313
X        3.98825000      43.87075000      27.91775000      -0.31624313
X        5.58355000      43.87075000      27.91775000      -0.31624313
W        3.19060000      41.47780000      28.71540000      -0.22145376
W        4.78590000      43.07310000      30.31070000      -0.08001555
X        3.98825000      42.27545000      29.51305000      -0.14006646
X        5.58355000      42.27545000      29.51305000      -0.14006646
X        3.98825000      43.87075000      29.51305000      -0.14006646
X        3.98825000      42.27545000      31.10835000      -0.04128609
X        5.58355000      43.87075000      29.51305000      -0.14006646
X        5.58355000      42.27545000      31.10835000      -0.04128609
X        3.98825000      43.87075000      31.10835000      -0.04128609
X        5.58355000      43.87075000      31.10835000      -0.04128609
W        3.19060000      41.47780000      31.90600000      -0.01924076
Ta       4.78590000      43.07310000      33.50130000      -0.00307912
X        3.98825000      42.27545000      32.70365000      -0.00809897
X        5.58355000      42.27545000      32.70365000      -0.00809897
X        3.98825000      43.87075000      32.70365000      -0.00809897
X        3.98825000      42.27545000      34.29895000      -0.00105733
X        5.58355000      43.87075000      32.70365000      -0.00809897
X        5.58355000      42.27545000      34.29895000      -0.00105733
X        3.98825000      43.87075000      34.29895000      -0.00105733
X        5.58355000      43.87075000      34.29895000      -0.00105733
W        3.19060000      41.47780000      35.09660000      -0.00032793
X        4.78590000      43.07310000      36.69190000      -0.00002324
X        3.98825000      42.27545000      35.89425000      -0.00009187
X        5.58355000      42.27545000      35.89425000      -0.00009187
X        3.98825000      43.87075000      35.89425000      -0.00009187
X        3.98825000      42.27545000      37.48955000      -0.00000531
X        5.58355000      43.87075000      35.89425000      -0.00009187
X        5.58355000      42.27545000      37.48955000      -0.00000531
X        3.98825000      43.87075000      37.48955000      -0.00000531
X        5.58355000      43.87075000      37.48955000      -0.00000531
W        3.19060000      41.47780000      38.28720000      -0.00000110
W        4.78590000      43.07310000      39.88250000      -0.00000003
X        3.98825000      42.27545000      39.08485000      -0.00000020
X        5.58355000      42.27545000      39.08485000      -0.00000020
X        3.98825000      43.87075000      39.08485000      -0.00000020
X        3.98825000      42.27545000      40.68015000      -0.00000001
X        5.58355000      43.87075000      39.08485000      -0.00000020
X        5.58355000      42.27545000      40.68015000      -0.00000001
X        3.98825000      43.87075000      40.68015000      -0.00000001
X        5.58355000      43.87075000      40.68015000      -0.00000001
W        3.19060000      41.47780000      41.47780000      -0.00000000
W        4.78590000      43.07310000      43.07310000      -0.00000000
X        3.98825000      42.27545000      42.27545000      -0.00000000
X        5.58355000      42.27545000      42.27545000      -0.00000000
X        3.98825000      43.87075000      42.27545000      -0.00000000
X        3.98825000      42.27545000      43.87075000      -0.00000000
X        5.58355000      43.87075000      42.27545000      -0.00000000
X        5.58355000      42.27545000      43.87075000      -0.00000000
X        3.98825000      43.87075000      43.87075000      -0.00000000
X        5.58355000      43.87075000      43.87075000      -0.00000000
W        3.19060000      41.47780000      44.66840000      -0.00000000
Ta       4.78590000      43.07310000      46.26370000      -0.00000000
X        3.98825000      42.27545000      45.46605000      -0.00000000
X        5.58355000      42.27545000      45.46605000      -0.00000000
X        3.98825000      43.87075000      45.46605000      -0.00000000
X        3.98825000      42.27545000      47.06135000      -0.00000000
X        5.58355000      43.87075000      45.46605000      -0.00000000
X        5.58355000      42.27545000      47.06135000      -0.00000000
X        3.98825000      43.87075000      47.06135000      -0.00000000
X        5.58355000      43.87075000      47.06135000      -0.00000000
W        3.19060000      41.47780000      47.85900000      -0.00000000
W        4.78590000      43.07310000      49.45430000      -0.00000000
X        3.98825000      42.27545000      48.65665000      -0.00000000
X        5.58355000      42.27545000      48.65665000      -0.00000000
X        3.98825000      43.87075000      48.65665000      -0.00000000
X        3.98825000      42.27545000      50.25195000      -0.00000000
X        5.58355000      43.87075000      48.65665000      -0.00000000
X        5.58355000      42.27545000      50.25195000      -0.00000000
X        3.98825000      43.87075000      50.25195000      -0.00000000
X        5.58355000      43.87075000      50.25195000      -0.00000000
W        3.19060000      44.66840000       0.00000000      -0.00000000
W        4.78590000      46.26370000       1.59530000      -0.00000000
X        3.98825000      45.46605000       0.79765000      -0.00000000
X        5.58355000      45.46605000       0.79765000      -0.00000000
X        3.98825000      47.06135000       0.79765000      -0.00000000
X        3.98825000      45.46605000       2.39295000      -0.00000000
X        5.58355000      47.06135000       0.79765000      -0.00000000
X        5.58355000      45.46605000       2.39295000      -0.00000000
X        3.98825000      47.06135000       2.39295000      -0.00000000
X        5.58355000      47.06135000       2.39295000      -0.00000000
W        3.19060000      44.66840000       3.19060000      -0.00000000
W        4.78590000      46.26370000       4.78590000      -0.00000000
X        3.98825000      45.46605000       3.98825000      -0.00000000
X        5.58355000      45.46605000       3.98825000      -0.00000000
X        3.98825000      47.06135000       3.98825000      -0.00000000
X        3.98825000      45.46605000       5.58355000      -0.00000000
X        5.58355000      47.06135000       3.98825000      -0.00000000
X        5.58355000      45.46605000       5.58355000      -0.00000000
X        3.98825000      47.06135000       5.58355000      -0.00000000
X        5.58355000      47.06135000       5.58355000      -0.00000000
Ta       3.19060000      44.66840000       6.38120000      -0.00000000
W        4.78590000      46.26370000       7.97650000      -0.00000000
X        3.98825000      45.46605000       7.17885000      -0.00000000
X        5.58355000      45.46605000       7.17885000      -0.00000000
X        3.98825000      47.06135000       7.17885000      -0.00000000
X        3.98825000      45.46605000       8.77415000      -0.00000000
X        5.58355000      47.06135000       7.17885000      -0.00000000
X        5.58355000      45.46605000       8.77415000      -0.00000000
X        3.98825000      47.06135000       8.77415000      -0.00000000
X        5.58355000      47.06135000       8.77415000      -0.00000000
Ta       3.19060000      44.66840000       9.57180000      -0.00000000
W        4.78590000      46.26370000      11.16710000      -0.00000003
X        3.98825000      45.46605000      10.36945000      -0.00000001
X        5.58355000      45.46605000      10.36945000      -0.00000001
X        3.98825000      47.06135000      10.36945000      -0.00000001
X        3.98825000      45.46605000      11.96475000      -0.00000020
X        5.58355000      47.06135000      10.36945000      -0.00000001
X        5.58355000      45.46605000      11.96475000      -0.00000020
X        3.98825000      47.06135000      11.96475000      -0.00000020
X        5.58355000      47.06135000      11.96475000      -0.00000020
W        3.19060000      44.66840000      12.76240000      -0.00000110
W        4.78590000      46.26370000      14.35770000      -0.00002324
X        3.98825000      45.46605000      13.56005000      -0.00000531
X        5.58355000      45.46605000      13.56005000      -0.00000531
X        3.98825000      47.06135000      13.56005000      -0.00000531
X        3.98825000      45.46605000      15.15535000      -0.00009187
X        5.58355000      47.06135000      13.56005000      -0.00000531
X        5.58355000      45.46605000      15.15535000      -0.00009187
X        3.98825000      47.06135000      15.15535000      -0.00009187
X        5.58355000      47.06135000      15.15535000      -0.00009187
W        3.19060000      44.66840000      15.95300000      -0.00032793
W        4.78590000      46.26370000      17.54830000      -0.00307912
X        3.98825000      45.46605000      16.75065000      -0.00105733
X        5.58355000      45.46605000      16.75065000      -0.00105733
X        3.98825000      47.06135000      16.75065000      -0.00105733
X        3.98825000      45.46605000      18.34595000      -0.00809897
X        5.58355000      47.06135000      16.75065000      -0.00105733
X        5.58355000      45.46605000      18.34595000      -0.00809897
X        3.98825000      47.06135000      18.34595000      -0.00809897
X        5.58355000      47.06135000      18.34595000      -0.00809897
W        3.19060000      44.66840000      19.14360000      -0.01924076
W        4.78590000      46.26370000      20.73890000      -0.08001555
X        3.98825000      45.46605000      19.94125000      -0.04128609
X        5.58355000      45.46605000      19.94125000      -0.04128609
X        3.98825000      47.06135000      19.94125000      -0.04128609
X        3.98825000      45.46605000      21.53655000      -0.14006646
X        5.58355000      47.06135000      19.94125000      -0.04128609
X        5.58355000      45.46605000      21.53655000      -0.14006646
X        3.98825000      47.06135000      21.53655000      -0.14006646
X        5.58355000      47.06135000      21.53655000      -0.14006646
W        3.19060000      44.66840000      22.33420000      -0.22145376
W        4.78590000      46.26370000      23.92950000      -0.40789490
X        3.98825000      45.46605000      23.13185000      -0.31624313
X        5.58355000      45.46605000      23.13185000      -0.31624313
X        3.98825000      47.06135000      23.13185000      -0.31624313
X        3.98825000      45.46605000      24.72715000      -0.47518702
X        5.58355000      47.06135000      23.13185000      -0.31624313
X        5.58355000      45.46605000      24.72715000      -0.47518702
X        3.98825000      47.06135000      24.72715000      -0.47518702
X        5.58355000      47.06135000      24.72715000      -0.47518702
W        3.19060000      44.66840000      25.52480000      -0.50000000
W        4.78590000      46.26370000      27.12010000      -0.40789490
X        3.98825000      45.46605000      26.32245000      -0.47518702
X        5.58355000      45.46605000      26.32245000      -0.47518702
X        3.98825000      47.06135000      26.32245000      -0.47518702
X        3.98825000      45.46605000      27.91775000      -0.31624313
X        5.58355000      47.06135000      26.32245000      -0.47518702
X        5.58355000      45.46605000      27.91775000      -0.31624313
X        3.98825000      47.06135000      27.91775000      -0.31624313
X        5.58355000      47.06135000      27.91775000      -0.31624313
W        3.19060000      44.66840000      28.71540000      -0.22145376
W        4.78590000      46.26370000      30.31070000      -0.08001555
X        3.98825000      45.46605000      29.51305000      -0.14006646
X        5.58355000      45.46605000      29.51305000      -0.14006646
X        3.98825000      47.06135000      29.51305000      -0.14006646
X        3.98825000      45.46605000      31.10835000      -0.04128609
X        5.58355000      47.06135000      29.51305000      -0.14006646
X        5.58355000      45.46605000      31.10835000      -0.04128609
X        3.98825000      47.06135000      31.10835000      -0.04128609
X        5.58355000      47.06135000      31.10835000      -0.04128609
W        3.19060000      44.66840000      31.90600000      -0.01924076
W        4.78590000      46.26370000      33.50130000      -0.00307912
X        3.98825000      45.46605000      32.70365000      -0.00809897
X        5.58355000      45.46605000      32.70365000      -0.00809897
X        3.98825000      47.06135000      32.70365000      -0.00809897
X        3.98825000      45.46605000      34.29895000      -0.00105733
X        5.58355000      47.06135000      32.70365000      -0.00809897
X        5.58355000      45.46605000      34.29895000      -0.00105733
X        3.98825000      47.06135000      34.29895000      -0.00105733
X        5.58355000      47.06135000      34.29895000      -0.00105733
W        3.19060000      44.66840000      35.09660000      -0.00032793
Ta       4.78590000      46.26370000      36.69190000      -0.00002324
X        3.98825000      45.46605000      35.89425000      -0.00009187
X        5.58355000      45.46605000      35.89425000      -0.00009187
X        3.98825000      47.06135000      35.89425000      -0.00009187
X        3.98825000      45.46605000      37.48955000      -0.00000531
X        5.58355000      47.06135000      35.89425000      -0.00009187
X        5.58355000      45.46605000      37.48955000      -0.00000531
X        3.98825000      47.06135000      37.48955000      -0.00000531
X        5.58355000      47.06135000      37.48955000      -0.00000531
W        3.19060000      44.66840000      38.28720000      -0.00000110
W        4.78590000      46.26370000      39.88250000      -0.00000003
X        3.98825000      45.46605000      39.08485000      -0.00000020
X        5.58355000      45.46605000      39.08485000      -0.00000020
X        3.98825000      47.06135000      39.08485000      -0.00000020
X        3.98825000      45.46605000      40.68015000      -0.00000001
X        5.58355000      47.06135000      39.08485000      -0.00000020
X        5.58355000      45.46605000      40.68015000      -0.00000001
X        3.98825000      47.06135000      40.68015000      -0.00000001
X        5.58355000      47.06135000      40.68015000      -0.00000001
W        3.19060000      44.66840000      41.47780000      -0.00000000
Ta       4.78590000      46.26370000      43.07310000      -0.00000000
X        3.98825000      45.46605000      42.27545000      -0.00000000
X        5.58355000      45.46605000      42.27545000      -0.00000000
X        3.98825000      47.06135000      42.27545000      -0.00000000
X        3.98825000      45.46605000      43.87075000      -0.00000000
X        5.58355000      47.06135000      42.27545000      -0.00000000
X        5.58355000      45.46605000      43.87075000      -0.00000000
X        3.98825000      47.06135000      43.87075000      -0.00000000
X        5.58355000      47.06135000      43.87075000      -0.00000000
W        3.19060000      44.66840000      44.66840000      -0.00000000
W        4.78590000      46.26370000      46.26370000      -0.00000000
X        3.98825000      45.46605000      45.46605000      -0.00000000
X        5.58355000      45.46605000      45.46605000      -0.00000000
X        3.98825000      47.06135000      45.46605000      -0.00000000
X        3.98825000      45.46605000      47.06135000      -0.00000000
X        5.58355000      47.06135000      45.46605000      -0.00000000
X        5.58355000      45.46605000      47.06135000      -0.00000000
X        3.98825000      47.06135000      47.06135000      -0.00000000
X        5.58355000      47.06135000      47.06135000      -0.00000000
W        3.19060000      44.66840000      47.85900000      -0.00000000
W        4.78590000      46.26370000      49.45430000      -0.00000000
X        3.98825000      45.46605000      48.65665000      -0.00000000
X        5.58355000      45.46605000      48.65665000      -0.00000000
X        3.98825000      47.06135000      48.65665000      -0.00000000
X        3.98825000      45.46605000      50.25195000      -0.00000000
X        5.58355000      47.06135000      48.65665000      -0.00000000
X        5.58355000      45.46605000      50.25195000      -0.00000000
X        3.98825000      47.06135000      50.25195000      -0.00000000
X        5.58355000      47.06135000      50.25195000      -0.00000000
W        3.19060000      47.85900000       0.00000000      -0.00000000
Ta       4.78590000      49.45430000       1.59530000      -0.00000000
X        3.98825000      48.65665000       0.79765000      -0.00000000
X        5.58355000      48.65665000       0.79765000      -0.00000000
X        3.98825000      50.25195000       0.79765000      -0.00000000
X        3.98825000      48.65665000       2.39295000      -0.00000000
X        5.58355000      50.25195000       0.79765000      -0.00000000
X        5.58355000      48.65665000       2.39295000      -0.00000000
X        3.98825000      50.25195000       2.39295000      -0.00000000
X        5.58355000      50.25195000       2.39295000      -0.00000000
W        3.19060000      47.85900000       3.19060000      -0.00000000
W        4.78590000      49.45430000       4.78590000      -0.00000000
X        3.98825000      48.65665000       3.98825000      -0.00000000
X        5.58355000      48.65665000       3.98825000      -0.00000000
X        3.98825000      50.25195000       3.98825000      -0.00000000
X        3.98825000      48.65665000       5.58355000      -0.00000000
X        5.58355000      50.25195000       3.98825000      -0.00000000
X        5.58355000      48.65665000       5.58355000      -0.00000000
X        3.98825000      50.25195000       5.58355000      -0.00000000
X        5.58355000      50.25195000       5.58355000      -0.00000000
Ta       3.19060000      47.85900000       6.38120000      -0.00000000
W        4.78590000      49.45430000       7.97650000      -0.00000000
X        3.98825000      48.65665000       7.17885000      -0.00000000
X        5.58355000      48.65665000       7.17885000      -0.00000000
X        3.98825000      50.25195000       7.17885000      -0.00000000
X        3.98825000      48.65665000       8.77415000      -0.00000000
X        5.58355000      50.25195000       7.17885000      -0.00000000
X        5.58355000      48.65665000       8.77415000      -0.00000000
X        3.98825000      50.25195000       8.77415000      -0.00000000
X        5.58355000      50.25195000       8.77415000      -0.00000000
Ta       3.19060000      47.85900000       9.57180000      -0.00000000
W        4.78590000      49.45430000      11.16710000      -0.00000003
X        3.98825000      48.65665000      10.36945000      -0.00000001
X        5.58355000      48.65665000      10.36945000      -0.00000001
X        3.98825000      50.25195000      10.36945000      -0.00000001
X        3.98825000      48.65665000      11.96475000      -0.00000020
X        5.58355000      50.25195000      10.36945000      -0.00000001
X        5.58355000      48.65665000      11.96475000      -0.00000020
X        3.98825000      50.25195000      11.96475000      -0.00000020
X        5.58355000      50.25195000      11.96475000      -0.00000020
Ta       3.19060000      47.85900000      12.76240000      -0.00000110
W        4.78590000      49.45430000      14.35770000      -0.00002324
X        3.98825000      48.65665000      13.56005000      -0.00000531
X        5.58355000      48.65665000      13.56005000      -0.00000531
X        3.98825000      50.25195000      13.56005000      -0.00000531
X        3.98825000      48.65665000      15.15535000      -0.00009187
X        5.58355000      50.25195000      13.56005000      -0.00000531
X        5.58355000      48.65665000      15.15535000      -0.00009187
X        3.98825000      50.25195000      15.15535000      -0.00009187
X        5.58355000      50.25195000      15.15535000      -0.00009187
W        3.19060000      47.85900000      15.95300000      -0.00032793
W        4.78590000      49.45430000      17.54830000      -0.00307912
X        3.98825000      48.65665000      16.75065000      -0.00105733
X        5.58355000      48.65665000      16.75065000      -0.00105733
X        3.98825000      50.25195000      16.75065000      -0.00105733
X        3.98825000      48.65665000      18.34595000      -0.00809897
X        5.58355000      50.25195000      16.75065000      -0.00105733
X        5.58355000      48.65665000      18.34595000      -0.00809897
X        3.98825000      50.25195000      18.34595000      -0.00809897
X        5.58355000      50.25195000      18.34595000      -0.00809897
W        3.19060000      47.85900000      19.14360000      -0.01924076
W        4.78590000      49.45430000      20.73890000      -0.08001555
X        3.98825000      48.65665000      19.94125000      -0.04128609
X        5.58355000      48.65665000      19.94125000      -0.04128609
X        3.98825000      50.25195000      19.94125000      -0.04128609
X        3.98825000      48.65665000      21.53655000      -0.14006646
X        5.58355000      50.25195000      19.94125000      -0.04128609
X        5.58355000      48.65665000      21.53655000      -0.14006646
X        3.98825000      50.25195000      21.53655000      -0.14006646
X        5.58355000      50.25195000      21.53655000      -0.14006646
W        3.19060000      47.85900000      22.33420000      -0.22145376
W        4.78590000      49.45430000      23.92950000      -0.40789490
X        3.98825000      48.65665000      23.13185000      -0.31624313
X        5.58355000      48.65665000      23.13185000      -0.31624313
X        3.98825000      50.25195000      23.13185000      -0.31624313
X        3.98825000      48.65665000      24.72715000      -0.47518702
X        5.58355000      50.25195000      23.13185000      -0.31624313
X        5.58355000      48.65665000      24.72715000      -0.47518702
X        3.98825000      50.25195000      24.72715000      -0.47518702
X        5.58355000      50.25195000      24.72715000      -0.47518702
Ta       3.19060000      47.85900000      25.52480000      -0.50000000
W        4.78590000      49.45430000      27.12010000      -0.40789490
X        3.98825000      48.65665000      26.32245000      -0.47518702
X        5.58355000      48.65665000      26.32245000      -0.47518702
X        3.98825000      50.25195000      26.32245000      -0.47518702
X        3.98825000      48.65665000      27.91775000      -0.31624313
X        5.58355000      50.25195000      26.32245000      -0.47518702
X        5.58355000      48.65665000      27.91775000      -0.31624313
X        3.98825000      50.25195000      27.91775000      -0.31624313
X        5.58355000      50.25195000      27.91775000      -0.31624313
Ta       3.19060000      47.85900000      28.71540000      -0.22145376
Ta       4.78590000      49.45430000      30.31070000      -0.08001555
X        3.98825000      48.65665000      29.51305000      -0.14006646
X        5.58355000      48.65665000      29.51305000      -0.14006646
X        3.98825000      50.25195000      29.51305000      -0.14006646
X        3.98825000      48.65665000      31.10835000      -0.04128609
X        5.58355000      50.25195000      29.51305000      -0.14006646
X        5.58355000      48.65665000      31.10835000      -0.04128609
X        3.98825000      50.25195000      31.10835000      -0.04128609
X        5.58355000      50.25195000      31.10835000      -0.04128609
W        3.19060000      47.85900000      31.90600000      -0.01924076
Ta       4.78590000      49.45430000      33.50130000      -0.00307912
X        3.98825000      48.65665000      32.70365000      -0.00809897
X        5.58355000      48.65665000      32.70365000      -0.00809897
X        3.98825000      50.25195000      32.70365000      -0.00809897
X        3.98825000      48.65665000      34.29895000      -0.00105733
X        5.58355000      50.25195000      32.70365000      -0.00809897
X        5.58355000      48.65665000      34.29895000      -0.00105733
X        3.98825000      50.25195000      34.29895000      -0.00105733
X        5.58355000      50.25195000      34.29895000      -0.00105733
Ta       3.19060000      47.85900000      35.09660000      -0.00032793
W        4.78590000      49.45430000      36.69190000      -0.00002324
X        3.98825000      48.65665000      35.89425000      -0.00009187
X        5.58355000      48.65665000      35.89425000      -0.00009187
X        3.98825000      50.25195000      35.89425000      -0.00009187
X        3.98825000      48.65665000      37.48955000      -0.00000531
X        5.58355000      50.25195000      35.89425000      -0.00009187
X        5.58355000      48.65665000      37.48955000      -0.00000531
X        3.98825000      50.25195000      37.48955000      -0.00000531
X        5.58355000      50.25195000      37.48955000      -0.00000531
W        3.19060000      47.85900000      38.28720000      -0.00000110
Ta       4.78590000      49.45430000      39.88250000      -0.00000003
X        3.98825000      48.65665000      39.08485000      -0.00000020
X        5.58355000      48.65665000      39.08485000      -0.00000020
X        3.98825000      50.25195000      39.08485000      -0.00000020
X        3.98825000      48.65665000      40.68015000      -0.00000001
X        5.58355000      50.25195000      39.08485000      -0.00000020
X        5.58355000      48.65665000      40.68015000      -0.00000001
X        3.98825000      50.25195000      40.68015000      -0.00000001
X        5.58355000      50.25195000      40.68015000      -0.00000001
W        3.19060000      47.85900000      41.47780000      -0.00000000
W        4.78590000      49.45430000      43.07310000      -0.00000000
X        3.98825000      48.65665000      42.27545000      -0.00000000
X        5.58355000      48.65665000      42.27545000      -0.00000000
X        3.98825000      50.25195000      42.27545000      -0.00000000
X        3.98825000      48.65665000      43.87075000      -0.00000000
X        5.58355000      50.25195000      42.27545000      -0.00000000
X        5.58355000      48.65665000      43.87075000      -0.00000000
X        3.98825000      50.25195000      43.87075000      -0.00000000
X        5.58355000      50.25195000      43.87075000      -0.00000000
W        3.19060000      47.85900000      44.66840000      -0.00000000
W        4.78590000      49.45430000      46.26370000      -0.00000000
X        3.98825000      48.65665000      45.46605000      -0.00000000
X        5.58355000      48.65665000      45.46605000      -0.00000000
X        3.98825000      50.25195000      45.46605000      -0.00000000
X        3.98825000      48.65665000      47.06135000      -0.00000000
X        5.58355000      50.25195000      45.46605000      -0.00000000
X        5.58355000      48.65665000      47.06135000      -0.00000000
X        3.98825000      50.25195000      47.06135000      -0.00000000
X        5.58355000      50.25195000      47.06135000      -0.00000000
Ta       3.19060000      47.85900000      47.85900000      -0.00000000
W        4.78590000      49.45430000      49.45430000      -0.00000000
X        3.98825000      48.65665000      48.65665000      -0.00000000
X        5.58355000      48.65665000      48.65665000      -0.00000000
X        3.98825000      50.25195000      48.65665000      -0.00000000
X        3.98825000      48.65665000      50.25195000      -0.00000000
X        5.58355000      50.25195000      48.65665000      -0.00000000
X        5.58355000      48.65665000      50.25195000      -0.00000000
X        3.98825000      50.25195000      50.25195000      -0.00000000
X        5.58355000      50.25195000      50.25195000      -0.00000000
W        6.38120000       0.00000000       0.00000000      -0.00000000
W        7.97650000       1.59530000       1.59530000      -0.00000000
X        7.17885000       0.79765000       0.79765000      -0.00000000
X        8.77415000       0.79765000       0.79765000      -0.00000000
X        7.17885000       2.39295000       0.79765000      -0.00000000
X        7.17885000       0.79765000       2.39295000      -0.00000000
X        8.77415000       2.39295000       0.79765000      -0.00000000
X        8.77415000       0.79765000       2.39295000      -0.00000000
X        7.17885000       2.39295000       2.39295000      -0.00000000
X        8.77415000       2.39295000       2.39295000      -0.00000000
Ta       6.38120000       0.00000000       3.19060000      -0.00000000
Ta       7.97650000       1.59530000       4.78590000      -0.00000000
X        7.17885000       0.79765000       3.98825000      -0.00000000
X        8.77415000       0.79765000       3.98825000      -0.00000000
X        7.17885000       2.39295000       3.98825000      -0.00000000
X        7.17885000       0.79765000       5.58355000      -0.00000000
X        8.77415000       2.39295000       3.98825000      -0.00000000
X        8.77415000       0.79765000       5.58355000      -0.00000000
X        7.17885000       2.39295000       5.58355000      -0.00000000
X        8.77415000       2.39295000       5.58355000      -0.00000000
W        6.38120000       0.00000000       6.38120000      -0.00000000
W        7.97650000       1.59530000       7.97650000      -0.00000000
X        7.17885000       0.79765000       7.17885000      -0.00000000
X        8.77415000       0.79765000       7.17885000      -0.00000000
X        7.17885000       2.39295000       7.17885000      -0.00000000
X        7.17885000       0.79765000       8.77415000      -0.00000000
X        8.77415000       2.39295000       7.17885000      -0.00000000
X        8.77415000       0.79765000       8.77415000      -0.00000000
X        7.17885000       2.39295000       8.77415000      -0.00000000
X        8.77415000       2.39295000       8.77415000      -0.00000000
W        6.38120000       0.00000000       9.57180000      -0.00000000
W        7.97650000       1.59530000      11.16710000      -0.00000003
X        7.17885000       0.79765000      10.36945000      -0.00000001
X        8.77415000       0.79765000      10.36945000      -0.00000001
X        7.17885000       2.39295000      10.36945000      -0.00000001
X        7.17885000       0.79765000      11.96475000      -0.00000020
X        8.77415000       2.39295000      10.36945000      -0.00000001
X        8.77415000       0.79765000      11.96475000      -0.00000020
X        7.17885000       2.39295000      11.96475000      -0.00000020
X        8.77415000       2.39295000      11.96475000      -0.00000020
W        6.38120000       0.00000000      12.76240000      -0.00000110
W        7.97650000       1.59530000      14.35770000      -0.00002324
X        7.17885000       0.79765000      13.56005000      -0.00000531
X        8.77415000       0.79765000      13.56005000      -0.00000531
X        7.17885000       2.39295000      13.56005000      -0.00000531
X        7.17885000       0.79765000      15.15535000      -0.00009187
X        8.77415000       2.39295000      13.56005000      -0.00000531
X        8.77415000       0.79765000      15.15535000      -0.00009187
X        7.17885000       2.39295000      15.15535000      -0.00009187
X        8.77415000       2.39295000      15.15535000      -0.00009187
W        6.38120000       0.00000000      15.95300000      -0.00032793
W        7.97650000       1.59530000      17.54830000      -0.00307912
X        7.17885000       0.79765000      16.75065000      -0.00105733
X        8.77415000       0.79765000      16.75065000      -0.00105733
X        7.17885000       2.39295000      16.75065000      -0.00105733
X        7.17885000       0.79765000      18.34595000      -0.00809897
X        8.77415000       2.39295000      16.75065000      -0.00105733
X        8.77415000       0.79765000      18.34595000      -0.00809897
X        7.17885000       2.39295000      18.34595000      -0.00809897
X        8.77415000       2.39295000      18.34595000      -0.00809897
W        6.38120000       0.00000000      19.14360000      -0.01924076
W        7.97650000       1.59530000      20.73890000      -0.08001555
X        7.17885000       0.79765000      19.94125000      -0.04128609
X        8.77415000       0.79765000      19.94125000      -0.04128609
X        7.17885000       2.39295000      19.94125000      -0.04128609
X        7.17885000       0.79765000      21.53655000      -0.14006646
X        8.77415000       2.39295000      19.94125000      -0.04128609
X        8.77415000       0.79765000      21.53655000      -0.14006646
X        7.17885000       2.39295000      21.53655000      -0.14006646
X        8.77415000       2.39295000      21.53655000      -0.14006646
W        6.38120000       0.00000000      22.33420000      -0.22145376
W        7.97650000       1.59530000      23.92950000      -0.40789490
X        7.17885000       0.79765000      23.13185000      -0.31624313
X        8.77415000       0.79765000      23.13185000      -0.31624313
X        7.17885000       2.39295000      23.13185000      -0.31624313
X        7.17885000       0.79765000      24.72715000      -0.47518702
X        8.77415000       2.39295000      23.13185000      -0.31624313
X        8.77415000       0.79765000      24.72715000      -0.47518702
X        7.17885000       2.39295000      24.72715000      -0.47518702
X        8.77415000       2.39295000      24.72715000      -0.47518702
Ta       6.38120000       0.00000000      25.52480000      -0.50000000
Ta       7.97650000       1.59530000      27.12010000      -0.40789490
X        7.17885000       0.79765000      26.32245000      -0.47518702
X        8.77415000       0.79765000      26.32245000      -0.47518702
X        7.17885000       2.39295000      26.32245000      -0.47518702
X        7.17885000       0.79765000      27.91775000      -0.31624313
X        8.77415000       2.39295000      26.32245000      -0.47518702
X        8.77415000       0.79765000      27.91775000      -0.31624313
X        7.17885000       2.39295000      27.91775000      -0.31624313
X        8.77415000       2.39295000      27.91775000      -0.31624313
Ta       6.38120000       0.00000000      28.71540000      -0.22145376
W        7.97650000       1.59530000      30.31070000      -0.08001555
X        7.17885000       0.79765000      29.51305000      -0.14006646
X        8.77415000       0.79765000      29.51305000      -0.14006646
X        7.17885000       2.39295000      29.51305000      -0.14006646
X        7.17885000       0.79765000      31.10835000      -0.04128609
X        8.77415000       2.39295000      29.51305000      -0.14006646
X        8.77415000       0.79765000      31.10835000      -0.04128609
X        7.17885000       2.39295000      31.10835000      -0.04128609
X        8.77415000       2.39295000      31.10835000      -0.04128609
W        6.38120000       0.00000000      31.90600000      -0.01924076
W        7.97650000       1.59530000      33.50130000      -0.00307912
X        7.17885000       0.79765000      32.70365000      -0.00809897
X        8.77415000       0.79765000      32.70365000      -0.00809897
X        7.17885000       2.39295000      32.70365000      -0.00809897
X        7.17885000       0.79765000      34.29895000      -0.00105733
X        8.77415000       2.39295000      32.70365000      -0.00809897
X        8.77415000       0.79765000      34.29895000      -0.00105733
X        7.17885000       2.39295000      34.29895000      -0.00105733
X        8.77415000       2.39295000      34.29895000      -0.00105733
W        6.38120000       0.00000000      35.09660000      -0.00032793
W        7.97650000       1.59530000      36.69190000      -0.00002324
X        7.17885000       0.79765000      35.89425000      -0.00009187
X        8.77415000       0.79765000      35.89425000      -0.00009187
X        7.17885000       2.39295000      35.89425000      -0.00009187
X        7.17885000       0.79765000      37.48955000      -0.00000531
X        8.77415000       2.39295000      35.89425000      -0.00009187
X        8.77415000       0.79765000      37.48955000      -0.00000531
X        7.17885000       2.39295000      37.48955000      -0.00000531
X        8.77415000       2.39295000      37.48955000      -0.00000531
W        6.38120000       0.00000000      38.28720000      -0.00000110
W        7.97650000       1.59530000      39.88250000      -0.00000003
X        7.17885000       0.79765000      39.08485000      -0.00000020
X        8.77415000       0.79765000      39.08485000      -0.00000020
X        7.17885000       2.39295000      39.08485000      -0.00000020
X        7.17885000       0.79765000      40.68015000      -0.00000001
X        8.77415000       2.39295000      39.08485000      -0.00000020
X        8.77415000       0.79765000      40.68015000      -0.00000001
X        7.17885000       2.39295000      40.68015000      -0.00000001
X        8.77415000       2.39295000      40.68015000      -0.00000001
W        6.38120000       0.00000000      41.47780000      -0.00000000
W        7.97650000       1.59530000      43.07310000      -0.00000000
X        7.17885000       0.79765000      42.27545000      -0.00000000
X        8.77415000       0.79765000      42.27545000      -0.00000000
X        7.17885000       2.39295000      42.27545000      -0.00000000
X        7.17885000       0.79765000      43.87075000      -0.00000000
X        8.77415000       2.39295000      42.27545000      -0.00000000
X        8.77415000       0.79765000      43.87075000      -0.00000000
X        7.17885000       2.39295000      43.87075000      -0.00000000
X        8.77415000       2.39295000      43.87075000      -0.00000000
W        6.38120000       0.00000000      44.66840000      -0.00000000
W        7.97650000       1.59530000      46.26370000      -0.00000000
X        7.17885000       0.79765000      45.46605000      -0.00000000
X        8.77415000       0.79765000      45.46605000      -0.00000000
X        7.17885000       2.39295000      45.46605000      -0.00000000
X        7.17885000       0.79765000      47.06135000      -0.00000000
X        8.77415000       2.39295000      45.46605000      -0.00000000
X        8.77415000       0.79765000      47.06135000      -0.00000000
X        7.17885000       2.39295000      47.06135000      -0.00000000
X        8.77415000       2.39295000      47.06135000      -0.00000000
W        6.38120000       0.00000000      47.85900000      -0.00000000
W        7.97650000       1.59530000      49.45430000      -0.00000000
X        7.17885000       0.79765000      48.65665000      -0.00000000
X        8.77415000       0.79765000      48.65665000      -0.00000000
X        7.17885000       2.39295000      48.65665000      -0.00000000
X        7.17885000       0.79765000      50.25195000      -0.00000000
X        8.77415000       2.39295000      48.65665000      -0.00000000
X        8.77415000       0.79765000      50.25195000      -0.00000000
X        7.17885000       2.39295000      50.25195000      -0.00000000
X        8.77415000       2.39295000      50.25195000      -0.00000000
W        6.38120000       3.19060000       0.00000000      -0.00000000
W        7.97650000       4.78590000       1.59530000      -0.00000000
X        7.17885000       3.98825000       0.79765000      -0.00000000
X        8.77415000       3.98825000       0.79765000      -0.00000000
X        7.17885000       5.58355000       0.79765000      -0.00000000
X        7.17885000       3.98825000       2.39295000      -0.00000000
X        8.77415000       5.58355000       0.79765000      -0.00000000
X        8.77415000       3.98825000       2.39295000      -0.00000000
X        7.17885000       5.58355000       2.39295000      -0.00000000
X        8.77415000       5.58355000       2.39295000      -0.00000000
Ta       6.38120000       3.19060000       3.19060000      -0.00000000
W        7.97650000       4.78590000       4.78590000      -0.00000000
X        7.17885000       3.98825000       3.98825000      -0.00000000
X        8.77415000       3.98825000       3.98825000      -0.00000000
X        7.17885000       5.58355000       3.98825000      -0.00000000
X        7.17885000       3.98825000       5.58355000      -0.00000000
X        8.77415000       5.58355000       3.98825000      -0.00000000
X        8.77415000       3.98825000       5.58355000      -0.00000000
X        7.17885000       5.58355000       5.58355000      -0.00000000
X        8.77415000       5.58355000       5.58355000      -0.00000000
Ta       6.38120000       3.19060000       6.38120000      -0.00000000
W        7.97650000       4.78590000       7.97650000      -0.00000000
X        7.17885000       3.98825000       7.17885000      -0.00000000
X        8.77415000       3.98825000       7.17885000      -0.00000000
X        7.17885000       5.58355000       7.17885000      -0.00000000
X        7.17885000       3.98825000       8.77415000      -0.00000000
X        8.77415000       5.58355000       7.17885000      -0.00000000
X        8.77415000       3.98825000       8.77415000      -0.00000000
X        7.17885000       5.58355000       8.77415000      -0.00000000
X        8.77415000       5.58355000       8.77415000      -0.00000000
W        6.38120000       3.19060000       9.57180000      -0.00000000
W        7.97650000       4.78590000      11.16710000      -0.00000003
X        7.17885000       3.98825000      10.36945000      -0.00000001
X        8.77415000       3.98825000      10.36945000      -0.00000001
X        7.17885000       5.58355000      10.36945000      -0.00000001
X        7.17885000       3.98825000      11.96475000      -0.00000020
X        8.77415000       5.58355000      10.36945000      -0.00000001
X        8.77415000       3.98825000      11.96475000      -0.00000020
X        7.17885000       5.58355000      11.96475000      -0.00000020
X        8.77415000       5.58355000      11.96475000      -0.00000020
W        6.38120000       3.19060000      12.76240000      -0.00000110
W        7.97650000       4.78590000      14.35770000      -0.00002324
X        7.17885000       3.98825000      13.56005000      -0.00000531
X        8.77415000       3.98825000      13.56005000      -0.00000531
X        7.17885000       5.58355000      13.56005000      -0.00000531
X        7.17885000       3.98825000      15.15535000      -0.00009187
X        8.77415000       5.58355000      13.56005000      -0.00000531
X        8.77415000       3.98825000      15.15535000      -0.00009187
X        7.17885000       5.58355000      15.15535000      -0.00009187
X        8.77415000       5.58355000      15.15535000      -0.00009187
W        6.38120000       3.19060000      15.95300000      -0.00032793
W        7.97650000       4.78590000      17.54830000      -0.00307912
X        7.17885000       3.98825000      16.75065000      -0.00105733
X        8.77415000       3.98825000      16.75065000      -0.00105733
X        7.17885000       5.58355000      16.75065000      -0.00105733
X        7.17885000       3.98825000      18.34595000      -0.00809897
X        8.77415000       5.58355000      16.75065000      -0.00105733
X        8.77415000       3.98825000      18.34595000      -0.00809897
X        7.17885000       5.58355000      18.34595000      -0.00809897
X        8.77415000       5.58355000      18.34595000      -0.00809897
W        6.38120000       3.19060000      19.14360000      -0.01924076
W        7.97650000       4.78590000      20.73890000      -0.08001555
X        7.17885000       3.98825000      19.94125000      -0.04128609
X        8.77415000       3.98825000      19.94125000      -0.04128609
X        7.17885000       5.58355000      19.94125000      -0.04128609
X        7.17885000       3.98825000      21.53655000      -0.14006646
X        8.77415000       5.58355000      19.94125000      -0.04128609
X        8.77415000       3.98825000      21.53655000      -0.14006646
X        7.17885000       5.58355000      21.53655000      -0.14006646
X        8.77415000       5.58355000      21.53655000      -0.14006646
Ta       6.38120000       3.19060000      22.33420000      -0.22145376
W        7.97650000       4.78590000      23.92950000      -0.40789490
X        7.17885000       3.98825000      23.13185000      -0.31624313
X        8.77415000       3.98825000      23.13185000      -0.31624313
X        7.17885000       5.58355000      23.13185000      -0.31624313
X        7.17885000       3.98825000      24.72715000      -0.47518702
X        8.77415000       5.58355000      23.13185000      -0.31624313
X        8.77415000       3.98825000      24.72715000      -0.47518702
X        7.17885000       5.58355000      24.72715000      -0.47518702
X        8.77415000       5.58355000      24.72715000      -0.47518702
W        6.38120000       3.19060000      25.52480000      -0.50000000
Ta       7.97650000       4.78590000      27.12010000      -0.40789490
X        7.17885000       3.98825000      26.32245000      -0.47518702
X        8.77415000       3.98825000      26.32245000      -0.47518702
X        7.17885000       5.58355000      26.32245000      -0.47518702
X        7.17885000       3.98825000      27.91775000      -0.31624313
X        8.77415000       5.58355000      26.32245000      -0.47518702
X        8.77415000       3.98825000      27.91775000      -0.31624313
X        7.17885000       5.58355000      27.91775000      -0.31624313
X        8.77415000       5.58355000      27.91775000      -0.31624313
W        6.38120000       3.19060000      28.71540000      -0.22145376
W        7.97650000       4.78590000      30.31070000      -0.08001555
X        7.17885000       3.98825000      29.51305000      -0.14006646
X        8.77415000       3.98825000      29.51305000      -0.14006646
X        7.17885000       5.58355000      29.51305000      -0.14006646
X        7.17885000       3.98825000      31.10835000      -0.04128609
X        8.77415000       5.58355000      29.51305000      -0.14006646
X        8.77415000       3.98825000      31.10835000      -0.04128609
X        7.17885000       5.58355000      31.10835000      -0.04128609
X        8.77415000       5.58355000      31.10835000      -0.04128609
W        6.38120000       3.19060000      31.90600000      -0.01924076
W        7.97650000       4.78590000      33.50130000      -0.00307912
X        7.17885000       3.98825000      32.70365000      -0.00809897
X        8.77415000       3.98825000      32.70365000      -0.00809897
X        7.17885000       5.58355000      32.70365000      -0.00809897
X        7.17885000       3.98825000      34.29895000      -0.00105733
X        8.77415000       5.58355000      32.70365000      -0.00809897
X        8.77415000       3.98825000      34.29895000      -0.00105733
X        7.17885000       5.58355000      34.29895000      -0.00105733
X        8.77415000       5.58355000      34.29895000      -0.00105733
W        6.38120000       3.19060000      35.09660000      -0.00032793
W        7.97650000       4.78590000      36.69190000      -0.00002324
X        7.17885000       3.98825000      35.89425000      -0.00009187
X        8.77415000       3.98825000      35.89425000      -0.00009187
X        7.17885000       5.58355000      35.89425000      -0.00009187
X        7.17885000       3.98825000      37.48955000      -0.00000531
X        8.77415000       5.58355000      35.89425000      -0.00009187
X        8.77415000       3.98825000      37.48955000      -0.00000531
X        7.17885000       5.58355000      37.48955000      -0.00000531
X        8.77415000       5.58355000      37.48955000      -0.00000531
Ta       6.38120000       3.19060000      38.28720000      -0.00000110
Ta       7.97650000       4.78590000      39.88250000      -0.00000003
X        7.17885000       3.98825000      39.08485000      -0.00000020
X        8.77415000       3.98825000      39.08485000      -0.00000020
X        7.17885000       5.58355000      39.08485000      -0.00000020
X        7.17885000       3.98825000      40.68015000      -0.00000001
X        8.77415000       5.58355000      39.08485000      -0.00000020
X        8.77415000       3.98825000      40.68015000      -0.00000001
X        7.17885000       5.58355000      40.68015000      -0.00000001
X        8.77415000       5.58355000      40.68015000      -0.00000001
W        6.38120000       3.19060000      41.47780000      -0.00000000
W        7.97650000       4.78590000      43.07310000      -0.00000000
X        7.17885000       3.98825000      42.27545000      -0.00000000
X        8.77415000       3.98825000      42.27545000      -0.00000000
X        7.17885000       5.58355000      42.27545000      -0.00000000
X        7.17885000       3.98825000      43.87075000      -0.00000000
X        8.77415000       5.58355000      42.27545000      -0.00000000
X        8.77415000       3.98825000      43.87075000      -0.00000000
X        7.17885000       5.58355000      43.87075000      -0.00000000
X        8.77415000       5.58355000      43.87075000      -0.00000000
W        6.38120000       3.19060000      44.66840000      -0.00000000
W        7.97650000       4.78590000      46.26370000      -0.00000000
X        7.17885000       3.98825000      45.46605000      -0.00000000
X        8.77415000       3.98825000      45.46605000      -0.00000000
X        7.17885000       5.58355000      45.46605000      -0.00000000
X        7.17885000       3.98825000      47.06135000      -0.00000000
X        8.77415000       5.58355000      45.46605000      -0.00000000
X        8.77415000       3.98825000      47.06135000      -0.00000000
X        7.17885000       5.58355000      47.06135000      -0.00000000
X        8.77415000       5.58355000      47.06135000      -0.00000000
W        6.38120000       3.19060000      47.85900000      -0.00000000
W        7.97650000       4.78590000      49.45430000      -0.00000000
X        7.17885000       3.98825000      48.65665000      -0.00000000
X        8.77415000       3.98825000      48.65665000      -0.00000000
X        7.17885000       5.58355000      48.65665000      -0.00000000
X        7.17885000       3.98825000      50.25195000      -0.00000000
X        8.77415000       5.58355000      48.65665000      -0.00000000
X        8.77415000       3.98825000      50.25195000      -0.00000000
X        7.17885000       5.58355000      50.25195000      -0.00000000
X        8.77415000       5.58355000      50.25195000      -0.00000000
W        6.38120000       6.38120000       0.00000000      -0.00000000
W        7.97650000       7.97650000       1.59530000      -0.00000000
X        7.17885000       7.17885000       0.79765000      -0.00000000
X        8.77415000       7.17885000       0.79765000      -0.00000000
X        7.17885000       8.77415000       0.79765000      -0.00000000
X        7.17885000       7.17885000       2.39295000      -0.00000000
X        8.77415000       8.77415000       0.79765000      -0.00000000
X        8.77415000       7.17885000       2.39295000      -0.00000000
X        7.17885000       8.77415000       2.39295000      -0.00000000
X        8.77415000       8.77415000       2.39295000      -0.00000000
W        6.38120000       6.38120000       3.19060000      -0.00000000
W        7.97650000       7.97650000       4.78590000      -0.00000000
X        7.17885000       7.17885000       3.98825000      -0.00000000
X        8.77415000       7.17885000       3.98825000      -0.00000000
X        7.17885000       8.77415000       3.98825000      -0.00000000
X        7.17885000       7.17885000       5.58355000      -0.00000000
X        8.77415000       8.77415000       3.98825000      -0.00000000
X        8.77415000       7.17885000       5.58355000      -0.00000000
X        7.17885000       8.77415000       5.58355000      -0.00000000
X        8.77415000       8.77415000       5.58355000      -0.00000000
W        6.38120000       6.38120000       6.38120000      -0.00000000
W        7.97650000       7.97650000       7.97650000      -0.00000000
X        7.17885000       7.17885000       7.17885000      -0.00000000
X        8.77415000       7.17885000       7.17885000      -0.00000000
X        7.17885000       8.77415000       7.17885000      -0.00000000
X        7.17885000       7.17885000       8.77415000      -0.00000000
X        8.77415000       8.77415000       7.17885000      -0.00000000
X        8.77415000       7.17885000       8.77415000      -0.00000000
X        7.17885000       8.77415000       8.77415000      -0.00000000
X        8.77415000       8.77415000       8.77415000      -0.00000000
Ta       6.38120000       6.38120000       9.57180000      -0.00000000
Ta       7.97650000       7.97650000      11.16710000      -0.00000003
X        7.17885000       7.17885000      10.36945000      -0.00000001
X        8.77415000       7.17885000      10.36945000      -0.00000001
X        7.17885000       8.77415000      10.36945000      -0.00000001
X        7.17885000       7.17885000      11.96475000      -0.00000020
X        8.77415000       8.77415000      10.36945000      -0.00000001
X        8.77415000       7.17885000      11.96475000      -0.00000020
X        7.17885000       8.77415000      11.96475000      -0.00000020
X        8.77415000       8.77415000      11.96475000      -0.00000020
W        6.38120000       6.38120000      12.76240000      -0.00000110
W        7.97650000       7.97650000      14.35770000      -0.00002324
X        7.17885000       7.17885000      13.56005000      -0.00000531
X        8.77415000       7.17885000      13.56005000      -0.00000531
X        7.17885000       8.77415000      13.56005000      -0.00000531
X        7.17885000       7.17885000      15.15535000      -0.00009187
X        8.77415000       8.77415000      13.56005000      -0.00000531
X        8.77415000       7.17885000      15.15535000      -0.00009187
X        7.17885000       8.77415000      15.15535000      -0.00009187
X        8.77415000       8.77415000      15.15535000      -0.00009187
W        6.38120000       6.38120000      15.95300000      -0.00032793
W        7.97650000       7.97650000      17.54830000      -0.00307912
X        7.17885000       7.17885000      16.75065000      -0.00105733
X        8.77415000       7.17885000      16.75065000      -0.00105733
X        7.17885000       8.77415000      16.75065000      -0.00105733
X        7.17885000       7.17885000      18.34595000      -0.00809897
X        8.77415000       8.77415000      16.75065000      -0.00105733
X        8.77415000       7.17885000      18.34595000      -0.00809897
X        7.17885000       8.77415000      18.34595000      -0.00809897
X        8.77415000       8.77415000      18.34595000      -0.00809897
Ta       6.38120000       6.38120000      19.14360000      -0.01924076
W        7.97650000       7.97650000      20.73890000      -0.08001555
X        7.17885000       7.17885000      19.94125000      -0.04128609
X        8.77415000       7.17885000      19.94125000      -0.04128609
X        7.17885000       8.77415000      19.94125000      -0.04128609
X        7.17885000       7.17885000      21.53655000      -0.14006646
X        8.77415000       8.77415000      19.94125000      -0.04128609
X        8.77415000       7.17885000      21.53655000      -0.14006646
X        7.17885000       8.77415000      21.53655000      -0.14006646
X        8.77415000       8.77415000      21.53655000      -0.14006646
Ta       6.38120000       6.38120000      22.33420000      -0.22145376
Ta       7.97650000       7.97650000      23.92950000      -0.40789490
X        7.17885000       7.17885000      23.13185000      -0.31624313
X        8.77415000       7.17885000      23.13185000      -0.31624313
X        7.17885000       8.77415000      23.13185000      -0.31624313
X        7.17885000       7.17885000      24.72715000      -0.47518702
X        8.77415000       8.77415000      23.13185000      -0.31624313
X        8.77415000       7.17885000      24.72715000      -0.47518702
X        7.17885000       8.77415000      24.72715000      -0.47518702
X        8.77415000       8.77415000      24.72715000      -0.47518702
W        6.38120000       6.38120000      25.52480000      -0.50000000
W        7.97650000       7.97650000      27.12010000      -0.40789490
X        7.17885000       7.17885000      26.32245000      -0.47518702
X        8.77415000       7.17885000      26.32245000      -0.47518702
X        7.17885000       8.77415000      26.32245000      -0.47518702
X        7.17885000       7.17885000      27.91775000      -0.31624313
X        8.77415000       8.77415000      26.32245000      -0.47518702
X        8.77415000       7.17885000      27.91775000      -0.31624313
X        7.17885000       8.77415000      27.91775000      -0.31624313
X        8.77415000       8.77415000      27.91775000      -0.31624313
Ta       6.38120000       6.38120000      28.71540000      -0.22145376
W        7.97650000       7.97650000      30.31070000      -0.08001555
X        7.17885000       7.17885000      29.51305000      -0.14006646
X        8.77415000       7.17885000      29.51305000      -0.14006646
X        7.17885000       8.77415000      29.51305000      -0.14006646
X        7.17885000       7.17885000      31.10835000      -0.04128609
X        8.77415000       8.77415000      29.51305000      -0.14006646
X        8.77415000       7.17885000      31.10835000      -0.04128609
X        7.17885000       8.77415000      31.10835000      -0.04128609
X        8.77415000       8.77415000      31.10835000      -0.04128609
Ta       6.38120000       6.38120000      31.90600000      -0.01924076
Ta       7.97650000       7.97650000      33.50130000      -0.00307912
X        7.17885000       7.17885000      32.70365000      -0.00809897
X        8.77415000       7.17885000      32.70365000      -0.00809897
X        7.17885000       8.77415000      32.70365000      -0.00809897
X        7.17885000       7.17885000      34.29895000      -0.00105733
X        8.77415000       8.77415000      32.70365000      -0.00809897
X        8.77415000       7.17885000      34.29895000      -0.00105733
X        7.17885000       8.77415000      34.29895000      -0.00105733
X        8.77415000       8.77415000      34.29895000      -0.00105733
W        6.38120000       6.38120000      35.09660000      -0.00032793
W        7.97650000       7.97650000      36.69190000      -0.00002324
X        7.17885000       7.17885000      35.89425000      -0.00009187
X        8.77415000       7.17885000      35.89425000      -0.00009187
X        7.17885000       8.77415000      35.89425000      -0.00009187
X        7.17885000       7.17885000      37.48955000      -0.00000531
X        8.77415000       8.77415000      35.89425000      -0.00009187
X        8.77415000       7.17885000      37.48955000      -0.00000531
X        7.17885000       8.77415000      37.48955000      -0.00000531
X        8.77415000       8.77415000      37.48955000      -0.00000531
W        6.38120000       6.38120000      38.28720000      -0.00000110
W        7.97650000       7.97650000      39.88250000      -0.00000003
X        7.17885000       7.17885000      39.08485000      -0.00000020
X        8.77415000       7.17885000      39.08485000      -0.00000020
X        7.17885000       8.77415000      39.08485000      -0.00000020
X        7.17885000       7.17885000      40.68015000      -0.00000001
X        8.77415000       8.77415000      39.08485000      -0.00000020
X        8.77415000       7.17885000      40.68015000      -0.00000001
X        7.17885000       8.77415000      40.68015000      -0.00000001
X        8.77415000       8.77415000      40.68015000      -0.00000001
W        6.38120000       6.38120000      41.47780000      -0.00000000
Ta       7.97650000       7.97650000      43.07310000      -0.00000000
X        7.17885000       7.17885000      42.27545000      -0.00000000
X        8.77415000       7.17885000      42.27545000      -0.00000000
X        7.17885000       8.77415000      42.27545000      -0.00000000
X        7.17885000       7.17885000      43.87075000      -0.00000000
X        8.77415000       8.77415000      42.27545000      -0.00000000
X        8.77415000       7.17885000      43.87075000      -0.00000000
X        7.17885000       8.77415000      43.87075000      -0.00000000
X        8.77415000       8.77415000      43.87075000      -0.00000000
Ta       6.38120000       6.38120000      44.66840000      -0.00000000
W        7.97650000       7.97650000      46.26370000      -0.00000000
X        7.17885000       7.17885000      45.46605000      -0.00000000
X        8.77415000       7.17885000      45.46605000      -0.00000000
X        7.17885000       8.77415000      45.46605000      -0.00000000
X        7.17885000       7.17885000      47.06135000      -0.00000000
X        8.77415000       8.77415000      45.46605000      -0.00000000
X        8.77415000       7.17885000      47.06135000      -0.00000000
X        7.17885000       8.77415000      47.06135000      -0.00000000
X        8.77415000       8.77415000      47.06135000      -0.00000000
W        6.38120000       6.38120000      47.85900000      -0.00000000
W        7.97650000       7.97650000      49.45430000      -0.00000000
X        7.17885000       7.17885000      48.65665000      -0.00000000
X        8.77415000       7.17885000      48.65665000      -0.00000000
X        7.17885000       8.77415000      48.65665000      -0.00000000
X        7.17885000       7.17885000      50.25195000      -0.00000000
X        8.77415000       8.77415000      48.65665000      -0.00000000
X        8.77415000       7.17885000      50.25195000      -0.00000000
X        7.17885000       8.77415000      50.25195000      -0.00000000
X        8.77415000       8.77415000      50.25195000      -0.00000000
W        6.38120000       9.57180000       0.00000000      -0.00000000
W        7.97650000      11.16710000       1.59530000      -0.00000000
X        7.17885000      10.36945000       0.79765000      -0.00000000
X        8.77415000      10.36945000       0.79765000      -0.00000000
X        7.17885000      11.96475000       0.79765000      -0.00000000
X        7.17885000      10.36945000       2.39295000      -0.00000000
X        8.77415000      11.96475000       0.79765000      -0.00000000
X        8.77415000      10.36945000       2.39295000      -0.00000000
X        7.17885000      11.96475000       2.39295000      -0.00000000
X        8.77415000      11.96475000       2.39295000      -0.00000000
W        6.38120000       9.57180000       3.19060000      -0.00000000
W        7.97650000      11.16710000       4.78590000      -0.00000000
X        7.17885000      10.36945000       3.98825000      -0.00000000
X        8.77415000      10.36945000       3.98825000      -0.00000000
X        7.17885000      11.96475000       3.98825000      -0.00000000
X        7.17885000      10.36945000       5.58355000      -0.00000000
X        8.77415000      11.96475000       3.98825000      -0.00000000
X        8.77415000      10.36945000       5.58355000      -0.00000000
X        7.17885000      11.96475000       5.58355000      -0.00000000
X        8.77415000      11.96475000       5.58355000      -0.00000000
W        6.38120000       9.57180000       6.38120000      -0.00000000
W        7.97650000      11.16710000       7.97650000      -0.00000000
X        7.17885000      10.36945000       7.17885000      -0.00000000
X        8.77415000      10.36945000       7.17885000      -0.00000000
X        7.17885000      11.96475000       7.17885000      -0.00000000
X        7.17885000      10.36945000       8.77415000      -0.00000000
X        8.77415000      11.96475000       7.17885000      -0.00000000
X        8.77415000      10.36945000       8.77415000      -0.00000000
X        7.17885000      11.96475000       8.77415000      -0.00000000
X        8.77415000      11.96475000       8.77415000      -0.00000000
W        6.38120000       9.57180000       9.57180000      -0.00000000
W        7.97650000      11.16710000      11.16710000      -0.00000003
X        7.17885000      10.36945000      10.36945000      -0.00000001
X        8.77415000      10.36945000      10.36945000      -0.00000001
X        7.17885000      11.96475000      10.36945000      -0.00000001
X        7.17885000      10.36945000      11.96475000      -0.00000020
X        8.77415000      11.96475000      10.36945000      -0.00000001
X        8.77415000      10.36945000      11.96475000      -0.00000020
X        7.17885000      11.96475000      11.96475000      -0.00000020
X        8.77415000      11.96475000      11.96475000      -0.00000020
Ta       6.38120000       9.57180000      12.76240000      -0.00000110
W        7.97650000      11.16710000      14.35770000      -0.00002324
X        7.17885000      10.36945000      13.56005000      -0.00000531
X        8.77415000      10.36945000      13.56005000      -0.00000531
X        7.17885000      11.96475000      13.56005000      -0.00000531
X        7.17885000      10.36945000      15.15535000      -0.00009187
X        8.77415000      11.96475000      13.56005000      -0.00000531
X        8.77415000      10.36945000      15.15535000      -0.00009187
X        7.17885000      11.96475000      15.15535000      -0.00009187
X        8.77415000      11.96475000      15.15535000      -0.00009187
W        6.38120000       9.57180000      15.95300000      -0.00032793
W        7.97650000      11.16710000      17.54830000      -0.00307912
X        7.17885000      10.36945000      16.75065000      -0.00105733
X        8.77415000      10.36945000      16.75065000      -0.00105733
X        7.17885000      11.96475000      16.75065000      -0.00105733
X        7.17885000      10.36945000      18.34595000      -0.00809897
X        8.77415000      11.96475000      16.75065000      -0.00105733
X        8.77415000      10.36945000      18.34595000      -0.00809897
X        7.17885000      11.96475000      18.34595000      -0.00809897
X        8.77415000      11.96475000      18.34595000      -0.00809897
W        6.38120000       9.57180000      19.14360000      -0.01924076
W        7.97650000      11.16710000      20.73890000      -0.08001555
X        7.17885000      10.36945000      19.94125000      -0.04128609
X        8.77415000      10.36945000      19.94125000      -0.04128609
X        7.17885000      11.96475000      19.94125000      -0.04128609
X        7.17885000      10.36945000      21.53655000      -0.14006646
X        8.77415000      11.96475000      19.94125000      -0.04128609
X        8.77415000      10.36945000      21.53655000      -0.14006646
X        7.17885000      11.96475000      21.53655000      -0.14006646
X        8.77415000      11.96475000      21.53655000      -0.14006646
W        6.38120000       9.57180000      22.33420000      -0.22145376
Ta       7.97650000      11.16710000      23.92950000      -0.40789490
X        7.17885000      10.36945000      23.13185000      -0.31624313
X        8.77415000      10.36945000      23.13185000      -0.31624313
X        7.17885000      11.96475000      23.13185000      -0.31624313
X        7.17885000      10.36945000      24.72715000      -0.47518702
X        8.77415000      11.96475000      23.13185000      -0.31624313
X        8.77415000      10.36945000      24.72715000      -0.47518702
X        7.17885000      11.96475000      24.72715000      -0.47518702
X        8.77415000      11.96475000      24.72715000      -0.47518702
W        6.38120000       9.57180000      25.52480000      -0.50000000
Ta       7.97650000      11.16710000      27.12010000      -0.40789490
X        7.17885000      10.36945000      26.32245000      -0.47518702
X        8.77415000      10.36945000      26.32245000      -0.47518702
X        7.17885000      11.96475000      26.32245000      -0.47518702
X        7.17885000      10.36945000      27.91775000      -0.31624313
X        8.77415000      11.96475000      26.32245000      -0.47518702
X        8.77415000      10.36945000      27.91775000      -0.31624313
X        7.17885000      11.96475000      27.91775000      -0.31624313
X        8.77415000      11.96475000      27.91775000      -0.31624313
W        6.38120000       9.57180000      28.71540000      -0.22145376
W        7.97650000      11.16710000      30.31070000      -0.08001555
X        7.17885000      10.36945000      29.51305000      -0.14006646
X        8.77415000      10.36945000      29.51305000      -0.14006646
X        7.17885000      11.96475000      29.51305000      -0.14006646
X        7.17885000      10.36945000      31.10835000      -0.04128609
X        8.77415000      11.96475000      29.51305000      -0.14006646
X        8.77415000      10.36945000      31.10835000      -0.04128609
X        7.17885000      11.96475000      31.10835000      -0.04128609
X        8.77415000      11.96475000      31.10835000      -0.04128609
Ta       6.38120000       9.57180000      31.90600000      -0.01924076
Ta       7.97650000      11.16710000      33.50130000      -0.00307912
X        7.17885000      10.36945000      32.70365000      -0.00809897
X        8.77415000      10.36945000      32.70365000      -0.00809897
X        7.17885000      11.96475000      32.70365000      -0.00809897
X        7.17885000      10.36945000      34.29895000      -0.00105733
X        8.77415000      11.96475000      32.70365000      -0.00809897
X        8.77415000      10.36945000      34.29895000      -0.00105733
X        7.17885000      11.96475000      34.29895000      -0.00105733
X        8.77415000      11.96475000      34.29895000      -0.00105733
W        6.38120000       9.57180000      35.09660000      -0.00032793
W        7.97650000      11.16710000      36.69190000      -0.00002324
X        7.17885000      10.36945000      35.89425000      -0.00009187
X        8.77415000      10.36945000      35.89425000      -0.00009187
X        7.17885000      11.96475000      35.89425000      -0.00009187
X        7.17885000      10.36945000      37.48955000      -0.00000531
X        8.77415000      11.96475000      35.89425000      -0.00009187
X        8.77415000      10.36945000      37.48955000      -0.00000531
X        7.17885000      11.96475000      37.48955000      -0.00000531
X        8.77415000      11.96475000      37.48955000      -0.00000531
W        6.38120000       9.57180000      38.28720000      -0.00000110
W        7.97650000      11.16710000      39.88250000      -0.00000003
X        7.17885000      10.36945000      39.08485000      -0.00000020
X        8.77415000      10.36945000      39.08485000      -0.00000020
X        7.17885000      11.96475000      39.08485000      -0.00000020
X        7.17885000      10.36945000      40.68015000      -0.00000001
X        8.77415000      11.96475000      39.08485000      -0.00000020
X        8.77415000      10.36945000      40.68015000      -0.00000001
X        7.17885000      11.96475000      40.68015000      -0.00000001
X        8.77415000      11.96475000      40.68015000      -0.00000001
W        6.38120000       9.57180000      41.47780000      -0.00000000
W        7.97650000      11.16710000      43.07310000      -0.00000000
X        7.17885000      10.36945000      42.27545000      -0.00000000
X        8.77415000      10.36945000      42.27545000      -0.00000000
X        7.17885000      11.96475000      42.27545000      -0.00000000
X        7.17885000      10.36945000      43.87075000      -0.00000000
X        8.77415000      11.96475000      42.27545000      -0.00000000
X        8.77415000      10.36945000      43.87075000      -0.00000000
X        7.17885000      11.96475000      43.87075000      -0.00000000
X        8.77415000      11.96475000      43.87075000      -0.00000000
Ta       6.38120000       9.57180000      44.66840000      -0.00000000
W        7.97650000      11.16710000      46.26370000      -0.00000000
X        7.17885000      10.36945000      45.46605000      -0.00000000
X        8.77415000      10.36945000      45.46605000      -0.00000000
X        7.17885000      11.96475000      45.46605000      -0.00000000
X        7.17885000      10.36945000      47.06135000      -0.00000000
X        8.77415000      11.96475000      45.46605000      -0.00000000
X        8.77415000      10.36945000      47.06135000      -0.00000000
X        7.17885000      11.96475000      47.06135000      -0.00000000
X        8.77415000      11.96475000      47.06135000      -0.00000000
W        6.38120000       9.57180000      47.85900000      -0.00000000
Ta       7.97650000      11.16710000      49.45430000      -0.00000000
X        7.17885000      10.36945000      48.65665000      -0.00000000
X        8.77415000      10.36945000      48.65665000      -0.00000000
X        7.17885000      11.96475000      48.65665000      -0.00000000
X        7.17885000      10.36945000      50.25195000      -0.00000000
X        8.77415000      11.96475000      48.65665000      -0.00000000
X        8.77415000      10.36945000      50.25195000      -0.00000000
X        7.17885000      11.96475000      50.25195000      -0.00000000
X        8.77415000      11.96475000      50.25195000      -0.00000000
W        6.38120000      12.76240000       0.00000000      -0.00000000
W        7.97650000      14.35770000       1.59530000      -0.00000000
X        7.17885000      13.56005000       0.79765000      -0.00000000
X        8.77415000      13.56005000       0.79765000      -0.00000000
X        7.17885000      15.15535000       0.79765000      -0.00000000
X        7.17885000      13.56005000       2.39295000      -0.00000000
X        8.77415000      15.15535000       0.79765000      -0.00000000
X        8.77415000      13.56005000       2.39295000      -0.00000000
X        7.17885000      15.15535000       2.39295000      -0.00000000
X        8.77415000      15.15535000       2.39295000      -0.00000000
W        6.38120000      12.76240000       3.19060000      -0.00000000
Ta       7.97650000      14.35770000       4.78590000      -0.00000000
X        7.17885000      13.56005000       3.98825000      -0.00000000
X        8.77415000      13.56005000       3.98825000      -0.00000000
X        7.17885000      15.15535000       3.98825000      -0.00000000
X        7.17885000      13.56005000       5.58355000      -0.00000000
X        8.77415000      15.15535000       3.98825000      -0.00000000
X        8.77415000      13.56005000       5.58355000      -0.00000000
X        7.17885000      15.15535000       5.58355000      -0.00000000
X        8.77415000      15.15535000       5.58355000      -0.00000000
Ta       6.38120000      12.76240000       6.38120000      -0.00000000
W        7.97650000      14.35770000       7.97650000      -0.00000000
X        7.17885000      13.56005000       7.17885000      -0.00000000
X        8.77415000      13.56005000       7.17885000      -0.00000000
X        7.17885000      15.15535000       7.17885000      -0.00000000
X        7.17885000      13.56005000       8.77415000      -0.00000000
X        8.77415000      15.15535000       7.17885000      -0.00000000
X        8.77415000      13.56005000       8.77415000      -0.00000000
X        7.17885000      15.15535000       8.77415000      -0.00000000
X        8.77415000      15.15535000       8.77415000      -0.00000000
W        6.38120000      12.76240000       9.57180000      -0.00000000
Ta       7.97650000      14.35770000      11.16710000      -0.00000003
X        7.17885000      13.56005000      10.36945000      -0.00000001
X        8.77415000      13.56005000      10.36945000      -0.00000001
X        7.17885000      15.15535000      10.36945000      -0.00000001
X        7.17885000      13.56005000      11.96475000      -0.00000020
X        8.77415000      15.15535000      10.36945000      -0.00000001
X        8.77415000      13.56005000      11.96475000      -0.00000020
X        7.17885000      15.15535000      11.96475000      -0.00000020
X        8.77415000      15.15535000      11.96475000      -0.00000020
W        6.38120000      12.76240000      12.76240000      -0.00000110
W        7.97650000      14.35770000      14.35770000      -0.00002324
X        7.17885000      13.56005000      13.56005000      -0.00000531
X        8.77415000      13.56005000      13.56005000      -0.00000531
X        7.17885000      15.15535000      13.56005000      -0.00000531
X        7.17885000      13.56005000      15.15535000      -0.00009187
X        8.77415000      15.15535000      13.56005000      -0.00000531
X        8.77415000      13.56005000      15.15535000      -0.00009187
X        7.17885000      15.15535000      15.15535000      -0.00009187
X        8.77415000      15.15535000      15.15535000      -0.00009187
W        6.38120000      12.76240000      15.95300000      -0.00032793
W        7.97650000      14.35770000      17.54830000      -0.00307912
X        7.17885000      13.56005000      16.75065000      -0.00105733
X        8.77415000      13.56005000      16.75065000      -0.00105733
X        7.17885000      15.15535000      16.75065000      -0.00105733
X        7.17885000      13.56005000      18.34595000      -0.00809897
X        8.77415000      15.15535000      16.75065000      -0.00105733
X        8.77415000      13.56005000      18.34595000      -0.00809897
X        7.17885000      15.15535000      18.34595000      -0.00809897
X        8.77415000      15.15535000      18.34595000      -0.00809897
W        6.38120000      12.76240000      19.14360000      -0.01924076
W        7.97650000      14.35770000      20.73890000      -0.08001555
X        7.17885000      13.56005000      19.94125000      -0.04128609
X        8.77415000      13.56005000      19.94125000      -0.04128609
X        7.17885000      15.15535000      19.94125000      -0.04128609
X        7.17885000      13.56005000      21.53655000      -0.14006646
X        8.77415000      15.15535000      19.94125000      -0.04128609
X        8.77415000      13.56005000      21.53655000      -0.14006646
X        7.17885000      15.15535000      21.53655000      -0.14006646
X        8.77415000      15.15535000      21.53655000      -0.14006646
W        6.38120000      12.76240000      22.33420000      -0.22145376
W        7.97650000      14.35770000      23.92950000      -0.40789490
X        7.17885000      13.56005000      23.13185000      -0.31624313
X        8.77415000      13.56005000      23.13185000      -0.31624313
X        7.17885000      15.15535000      23.13185000      -0.31624313
X        7.17885000      13.56005000      24.72715000      -0.47518702
X        8.77415000      15.15535000      23.13185000      -0.31624313
X        8.77415000      13.56005000      24.72715000      -0.47518702
X        7.17885000      15.15535000      24.72715000      -0.47518702
X        8.77415000      15.15535000      24.72715000      -0.47518702
W        6.38120000      12.76240000      25.52480000      -0.50000000
W        7.97650000      14.35770000      27.12010000      -0.40789490
X        7.17885000      13.56005000      26.32245000      -0.47518702
X        8.77415000      13.56005000      26.32245000      -0.47518702
X        7.17885000      15.15535000      26.32245000      -0.47518702
X        7.17885000      13.56005000      27.91775000      -0.31624313
X        8.77415000      15.15535000      26.32245000      -0.47518702
X        8.77415000      13.56005000      27.91775000      -0.31624313
X        7.17885000      15.15535000      27.91775000      -0.31624313
X        8.77415000      15.15535000      27.91775000      -0.31624313
W        6.38120000      12.76240000      28.71540000      -0.22145376
W        7.97650000      14.35770000      30.31070000      -0.08001555
X        7.17885000      13.56005000      29.51305000      -0.14006646
X        8.77415000      13.56005000      29.51305000      -0.14006646
X        7.17885000      15.15535000      29.51305000      -0.14006646
X        7.17885000      13.56005000      31.10835000      -0.04128609
X        8.77415000      15.15535000      29.51305000      -0.14006646
X        8.77415000      13.56005000      31.10835000      -0.04128609
X        7.17885000      15.15535000      31.10835000      -0.04128609
X        8.77415000      15.15535000      31.10835000      -0.04128609
W        6.38120000      12.76240000      31.90600000      -0.01924076
W        7.97650000      14.35770000      33.50130000      -0.00307912
X        7.17885000      13.56005000      32.70365000      -0.00809897
X        8.77415000      13.56005000      32.70365000      -0.00809897
X        7.17885000      15.15535000      32.70365000      -0.00809897
X        7.17885000      13.56005000      34.29895000      -0.00105733
X        8.77415000      15.15535000      32.70365000      -0.00809897
X        8.77415000      13.56005000      34.29895000      -0.00105733
X        7.17885000      15.15535000      34.29895000      -0.00105733
X        8.77415000      15.15535000      34.29895000      -0.00105733
W        6.38120000      12.76240000      35.09660000      -0.00032793
W        7.97650000      14.35770000      36.69190000      -0.00002324
X        7.17885000      13.56005000      35.89425000      -0.00009187
X        8.77415000      13.56005000      35.89425000      -0.00009187
X        7.17885000      15.15535000      35.89425000      -0.00009187
X        7.17885000      13.56005000      37.48955000      -0.00000531
X        8.77415000      15.15535000      35.89425000      -0.00009187
X        8.77415000      13.56005000      37.48955000      -0.00000531
X        7.17885000      15.15535000      37.48955000      -0.00000531
X        8.77415000      15.15535000      37.48955000      -0.00000531
W        6.38120000      12.76240000      38.28720000      -0.00000110
Ta       7.97650000      14.35770000      39.88250000      -0.00000003
X        7.17885000      13.56005000      39.08485000      -0.00000020
X        8.77415000      13.56005000      39.08485000      -0.00000020
X        7.17885000      15.15535000      39.08485000      -0.00000020
X        7.17885000      13.56005000      40.68015000      -0.00000001
X        8.77415000      15.15535000      39.08485000      -0.00000020
X        8.77415000      13.56005000      40.68015000      -0.00000001
X        7.17885000      15.15535000      40.68015000      -0.00000001
X        8.77415000      15.15535000      40.68015000      -0.00000001
W        6.38120000      12.76240000      41.47780000      -0.00000000
W        7.97650000      14.35770000      43.07310000      -0.00000000
X        7.17885000      13.56005000      42.27545000      -0.00000000
X        8.77415000      13.56005000      42.27545000      -0.00000000
X        7.17885000      15.15535000      42.27545000      -0.00000000
X        7.17885000      13.56005000      43.87075000      -0.00000000
X        8.77415000      15.15535000      42.27545000      -0.00000000
X        8.77415000      13.56005000      43.87075000      -0.00000000
X        7.17885000      15.15535000      43.87075000      -0.00000000
X        8.77415000      15.15535000      43.87075000      -0.00000000
W        6.38120000      12.76240000      44.66840000      -0.00000000
Ta       7.97650000      14.35770000      46.26370000      -0.00000000
X        7.17885000      13.56005000      45.46605000      -0.00000000
X        8.77415000      13.56005000      45.46605000      -0.00000000
X        7.17885000      15.15535000      45.46605000      -0.00000000
X        7.17885000      13.56005000      47.06135000      -0.00000000
X        8.77415000      15.15535000      45.46605000      -0.00000000
X        8.77415000      13.56005000      47.06135000      -0.00000000
X        7.17885000      15.15535000      47.06135000      -0.00000000
X        8.77415000      15.15535000      47.06135000      -0.00000000
W        6.38120000      12.76240000      47.85900000      -0.00000000
W        7.97650000      14.35770000      49.45430000      -0.00000000
X        7.17885000      13.56005000      48.65665000      -0.00000000
X        8.77415000      13.56005000      48.65665000      -0.00000000
X        7.17885000      15.15535000      48.65665000      -0.00000000
X        7.17885000      13.56005000      50.25195000      -0.00000000
X        8.77415000      15.15535000      48.65665000      -0.00000000
X        8.77415000      13.56005000      50.25195000      -0.00000000
X        7.17885000      15.15535000      50.25195000      -0.00000000
X        8.77415000      15.15535000      50.25195000      -0.00000000
W        6.38120000      15.95300000       0.00000000      -0.00000000
Ta       7.97650000      17.54830000       1.59530000      -0.00000000
X        7.17885000      16.75065000       0.79765000      -0.00000000
X        8.77415000      16.75065000       0.79765000      -0.00000000
X        7.17885000      18.34595000       0.79765000      -0.00000000
X        7.17885000      16.75065000       2.39295000      -0.00000000
X        8.77415000      18.34595000       0.79765000      -0.00000000
X        8.77415000      16.75065000       2.39295000      -0.00000000
X        7.17885000      18.34595000       2.39295000      -0.00000000
X        8.77415000      18.34595000       2.39295000      -0.00000000
W        6.38120000      15.95300000       3.19060000      -0.00000000
W        7.97650000      17.54830000       4.78590000      -0.00000000
X        7.17885000      16.75065000       3.98825000      -0.00000000
X        8.77415000      16.75065000       3.98825000      -0.00000000
X        7.17885000      18.34595000       3.98825000      -0.00000000
X        7.17885000      16.75065000       5.58355000      -0.00000000
X        8.77415000      18.34595000       3.98825000      -0.00000000
X        8.77415000      16.75065000       5.58355000      -0.00000000
X        7.17885000      18.34595000       5.58355000      -0.00000000
X        8.77415000      18.34595000       5.58355000      -0.00000000
W        6.38120000      15.95300000       6.38120000      -0.00000000
W        7.97650000      17.54830000       7.97650000      -0.00000000
X        7.17885000      16.75065000       7.17885000      -0.00000000
X        8.77415000      16.75065000       7.17885000      -0.00000000
X        7.17885000      18.34595000       7.17885000      -0.00000000
X        7.17885000      16.75065000       8.77415000      -0.00000000
X        8.77415000      18.34595000       7.17885000      -0.00000000
X        8.77415000      16.75065000       8.77415000      -0.00000000
X        7.17885000      18.34595000       8.77415000      -0.00000000
X        8.77415000      18.34595000       8.77415000      -0.00000000
Ta       6.38120000      15.95300000       9.57180000      -0.00000000
W        7.97650000      17.54830000      11.16710000      -0.00000003
X        7.17885000      16.75065000      10.36945000      -0.00000001
X        8.77415000      16.75065000      10.36945000      -0.00000001
X        7.17885000      18.34595000      10.36945000      -0.00000001
X        7.17885000      16.75065000      11.96475000      -0.00000020
X        8.77415000      18.34595000      10.36945000      -0.00000001
X        8.77415000      16.75065000      11.96475000      -0.00000020
X        7.17885000      18.34595000      11.96475000      -0.00000020
X        8.77415000      18.34595000      11.96475000      -0.00000020
W        6.38120000      15.95300000      12.76240000      -0.00000110
W        7.97650000      17.54830000      14.35770000      -0.00002324
X        7.17885000      16.75065000      13.56005000      -0.00000531
X        8.77415000      16.75065000      13.56005000      -0.00000531
X        7.17885000      18.34595000      13.56005000      -0.00000531
X        7.17885000      16.75065000      15.15535000      -0.00009187
X        8.77415000      18.34595000      13.56005000      -0.00000531
X        8.77415000      16.75065000      15.15535000      -0.00009187
X        7.17885000      18.34595000      15.15535000      -0.00009187
X        8.77415000      18.34595000      15.15535000      -0.00009187
W        6.38120000      15.95300000      15.95300000      -0.00032793
W        7.97650000      17.54830000      17.54830000      -0.00307912
X        7.17885000      16.75065000      16.75065000      -0.00105733
X        8.77415000      16.75065000      16.75065000      -0.00105733
X        7.17885000      18.34595000      16.75065000      -0.00105733
X        7.17885000      16.75065000      18.34595000      -0.00809897
X        8.77415000      18.34595000      16.75065000      -0.00105733
X        8.77415000      16.75065000      18.34595000      -0.00809897
X        7.17885000      18.34595000      18.34595000      -0.00809897
X        8.77415000      18.34595000      18.34595000      -0.00809897
W        6.38120000      15.95300000      19.14360000      -0.01924076
Ta       7.97650000      17.54830000      20.73890000      -0.08001555
X        7.17885000      16.75065000      19.94125000      -0.04128609
X        8.77415000      16.75065000      19.94125000      -0.04128609
X        7.17885000      18.34595000      19.94125000      -0.04128609
X        7.17885000      16.75065000      21.53655000      -0.14006646
X        8.77415000      18.34595000      19.94125000      -0.04128609
X        8.77415000      16.75065000      21.53655000      -0.14006646
X        7.17885000      18.34595000      21.53655000      -0.14006646
X        8.77415000      18.34595000      21.53655000      -0.14006646
W        6.38120000      15.95300000      22.33420000      -0.22145376
Ta       7.97650000      17.54830000      23.92950000      -0.40789490
X        7.17885000      16.75065000      23.13185000      -0.31624313
X        8.77415000      16.75065000      23.13185000      -0.31624313
X        7.17885000      18.34595000      23.13185000      -0.31624313
X        7.17885000      16.75065000      24.72715000      -0.47518702
X        8.77415000      18.34595000      23.13185000      -0.31624313
X        8.77415000      16.75065000      24.72715000      -0.47518702
X        7.17885000      18.34595000      24.72715000      -0.47518702
X        8.77415000      18.34595000      24.72715000      -0.47518702
W        6.38120000      15.95300000      25.52480000      -0.50000000
W        7.97650000      17.54830000      27.12010000      -0.40789490
X        7.17885000      16.75065000      26.32245000      -0.47518702
X        8.77415000      16.75065000      26.32245000      -0.47518702
X        7.17885000      18.34595000      26.32245000      -0.47518702
X        7.17885000      16.75065000      27.91775000      -0.31624313
X        8.77415000      18.34595000      26.32245000      -0.47518702
X        8.77415000      16.75065000      27.91775000      -0.31624313
X        7.17885000      18.34595000      27.91775000      -0.31624313
X        8.77415000      18.34595000      27.91775000      -0.31624313
W        6.38120000      15.95300000      28.71540000      -0.22145376
W        7.97650000      17.54830000      30.31070000      -0.08001555
X        7.17885000      16.75065000      29.51305000      -0.14006646
X        8.77415000      16.75065000      29.51305000      -0.14006646
X        7.17885000      18.34595000      29.51305000      -0.14006646
X        7.17885000      16.75065000      31.10835000      -0.04128609
X        8.77415000      18.34595000      29.51305000      -0.14006646
X        8.77415000      16.75065000      31.10835000      -0.04128609
X        7.17885000      18.34595000      31.10835000      -0.04128609
X        8.77415000      18.34595000      31.10835000      -0.04128609
W        6.38120000      15.95300000      31.90600000      -0.01924076
W        7.97650000      17.54830000      33.50130000      -0.00307912
X        7.17885000      16.75065000      32.70365000      -0.00809897
X        8.77415000      16.75065000      32.70365000      -0.00809897
X        7.17885000      18.34595000      32.70365000      -0.00809897
X        7.17885000      16.75065000      34.29895000      -0.00105733
X        8.77415000      18.34595000      32.70365000      -0.00809897
X        8.77415000      16.75065000      34.29895000      -0.00105733
X        7.17885000      18.34595000      34.29895000      -0.00105733
X        8.77415000      18.34595000      34.29895000      -0.00105733
W        6.38120000      15.95300000      35.09660000      -0.00032793
W        7.97650000      17.54830000      36.69190000      -0.00002324
X        7.17885000      16.75065000      35.89425000      -0.00009187
X        8.77415000      16.75065000      35.89425000      -0.00009187
X        7.17885000      18.34595000      35.89425000      -0.00009187
X        7.17885000      16.75065000      37.48955000      -0.00000531
X        8.77415000      18.34595000      35.89425000      -0.00009187
X        8.77415000      16.75065000      37.48955000      -0.00000531
X        7.17885000      18.34595000      37.48955000      -0.00000531
X        8.77415000      18.34595000      37.48955000      -0.00000531
Ta       6.38120000      15.95300000      38.28720000      -0.00000110
W        7.97650000      17.54830000      39.88250000      -0.00000003
X        7.17885000      16.75065000      39.08485000      -0.00000020
X        8.77415000      16.75065000      39.08485000      -0.00000020
X        7.17885000      18.34595000      39.08485000      -0.00000020
X        7.17885000      16.75065000      40.68015000      -0.00000001
X        8.77415000      18.34595000      39.08485000      -0.00000020
X        8.77415000      16.75065000      40.68015000      -0.00000001
X        7.17885000      18.34595000      40.68015000      -0.00000001
X        8.77415000      18.34595000      40.68015000      -0.00000001
W        6.38120000      15.95300000      41.47780000      -0.00000000
W        7.97650000      17.54830000      43.07310000      -0.00000000
X        7.17885000      16.75065000      42.27545000      -0.00000000
X        8.77415000      16.75065000      42.27545000      -0.00000000
X        7.17885000      18.34595000      42.27545000      -0.00000000
X        7.17885000      16.75065000      43.87075000      -0.00000000
X        8.77415000      18.34595000      42.27545000      -0.00000000
X        8.77415000      16.75065000      43.87075000      -0.00000000
X        7.17885000      18.34595000      43.87075000      -0.00000000
X        8.77415000      18.34595000      43.87075000      -0.00000000
W        6.38120000      15.95300000      44.66840000      -0.00000000
W        7.97650000      17.54830000      46.26370000      -0.00000000
X        7.17885000      16.75065000      45.46605000      -0.00000000
X        8.77415000      16.75065000      45.46605000      -0.00000000
X        7.17885000      18.34595000      45.46605000      -0.00000000
X        7.17885000      16.75065000      47.06135000      -0.00000000
X        8.77415000      18.34595000      45.46605000      -0.00000000
X        8.77415000      16.75065000      47.06135000      -0.00000000
X        7.17885000      18.34595000      47.06135000      -0.00000000
X        8.77415000      18.34595000      47.06135000      -0.00000000
Ta       6.38120000      15.95300000      47.85900000      -0.00000000
W        7.97650000      17.54830000      49.45430000      -0.00000000
X        7.17885000      16.75065000      48.65665000      -0.00000000
X        8.77415000      16.75065000      48.65665000      -0.00000000
X        7.17885000      18.34595000      48.65665000      -0.00000000
X        7.17885000      16.75065000      50.25195000      -0.00000000
X        8.77415000      18.34595000      48.65665000      -0.00000000
X        8.77415000      16.75065000      50.25195000      -0.00000000
X        7.17885000      18.34595000      50.25195000      -0.00000000
X        8.77415000      18.34595000      50.25195000      -0.00000000
W        6.38120000      19.14360000       0.00000000      -0.00000000
W        7.97650000      20.73890000       1.59530000      -0.00000000
X        7.17885000      19.94125000       0.79765000      -0.00000000
X        8.77415000      19.94125000       0.79765000      -0.00000000
X        7.17885000      21.53655000       0.79765000      -0.00000000
X        7.17885000      19.94125000       2.39295000      -0.00000000
X        8.77415000      21.53655000       0.79765000      -0.00000000
X        8.77415000      19.94125000       2.39295000      -0.00000000
X        7.17885000      21.53655000       2.39295000      -0.00000000
X        8.77415000      21.53655000       2.39295000      -0.00000000
W        6.38120000      19.14360000       3.19060000      -0.00000000
Ta       7.97650000      20.73890000       4.78590000      -0.00000000
X        7.17885000      19.94125000       3.98825000      -0.00000000
X        8.77415000      19.94125000       3.98825000      -0.00000000
X        7.17885000      21.53655000       3.98825000      -0.00000000
X        7.17885000      19.94125000       5.58355000      -0.00000000
X        8.77415000      21.53655000       3.98825000      -0.00000000
X        8.77415000      19.94125000       5.58355000      -0.00000000
X        7.17885000      21.53655000       5.58355000      -0.00000000
X        8.77415000      21.53655000       5.58355000      -0.00000000
Ta       6.38120000      19.14360000       6.38120000      -0.00000000
W        7.97650000      20.73890000       7.97650000      -0.00000000
X        7.17885000      19.94125000       7.17885000      -0.00000000
X        8.77415000      19.94125000       7.17885000      -0.00000000
X        7.17885000      21.53655000       7.17885000      -0.00000000
X        7.17885000      19.94125000       8.77415000      -0.00000000
X        8.77415000      21.53655000       7.17885000      -0.00000000
X        8.77415000      19.94125000       8.77415000      -0.00000000
X        7.17885000      21.53655000       8.77415000      -0.00000000
X        8.77415000      21.53655000       8.77415000      -0.00000000
W        6.38120000      19.14360000       9.57180000      -0.00000000
W        7.97650000      20.73890000      11.16710000      -0.00000003
X        7.17885000      19.94125000      10.36945000      -0.00000001
X        8.77415000      19.94125000      10.36945000      -0.00000001
X        7.17885000      21.53655000      10.36945000      -0.00000001
X        7.17885000      19.94125000      11.96475000      -0.00000020
X        8.77415000      21.53655000      10.36945000      -0.00000001
X        8.77415000      19.94125000      11.96475000      -0.00000020
X        7.17885000      21.53655000      11.96475000      -0.00000020
X        8.77415000      21.53655000      11.96475000      -0.00000020
W        6.38120000      19.14360000      12.76240000      -0.00000110
W        7.97650000      20.73890000      14.35770000      -0.00002324
X        7.17885000      19.94125000      13.56005000      -0.00000531
X        8.77415000      19.94125000      13.56005000      -0.00000531
X        7.17885000      21.53655000      13.56005000      -0.00000531
X        7.17885000      19.94125000      15.15535000      -0.00009187
X        8.77415000      21.53655000      13.56005000      -0.00000531
X        8.77415000      19.94125000      15.15535000      -0.00009187
X        7.17885000      21.53655000      15.15535000      -0.00009187
X        8.77415000      21.53655000      15.15535000      -0.00009187
W        6.38120000      19.14360000      15.95300000      -0.00032793
W        7.97650000      20.73890000      17.54830000      -0.00307912
X        7.17885000      19.94125000      16.75065000      -0.00105733
X        8.77415000      19.94125000      16.75065000      -0.00105733
X        7.17885000      21.53655000      16.75065000      -0.00105733
X        7.17885000      19.94125000      18.34595000      -0.00809897
X        8.77415000      21.53655000      16.75065000      -0.00105733
X        8.77415000      19.94125000      18.34595000      -0.00809897
X        7.17885000      21.53655000      18.34595000      -0.00809897
X        8.77415000      21.53655000      18.34595000      -0.00809897
W        6.38120000      19.14360000      19.14360000      -0.01924076
W        7.97650000      20.73890000      20.73890000      -0.08001555
X        7.17885000      19.94125000      19.94125000      -0.04128609
X        8.77415000      19.94125000      19.94125000      -0.04128609
X        7.17885000      21.53655000      19.94125000      -0.04128609
X        7.17885000      19.94125000      21.53655000      -0.14006646
X        8.77415000      21.53655000      19.94125000      -0.04128609
X        8.77415000      19.94125000      21.53655000      -0.14006646
X        7.17885000      21.53655000      21.53655000      -0.14006646
X        8.77415000      21.53655000      21.53655000      -0.14006646
W        6.38120000      19.14360000      22.33420000      -0.22145376
Ta       7.97650000      20.73890000      23.92950000      -0.40789490
X        7.17885000      19.94125000      23.13185000      -0.31624313
X        8.77415000      19.94125000      23.13185000      -0.31624313
X        7.17885000      21.53655000      23.13185000      -0.31624313
X        7.17885000      19.94125000      24.72715000      -0.47518702
X        8.77415000      21.53655000      23.13185000      -0.31624313
X        8.77415000      19.94125000      24.72715000      -0.47518702
X        7.17885000      21.53655000      24.72715000      -0.47518702
X        8.77415000      21.53655000      24.72715000      -0.47518702
W        6.38120000      19.14360000      25.52480000      -0.50000000
W        7.97650000      20.73890000      27.12010000      -0.40789490
X        7.17885000      19.94125000      26.32245000      -0.47518702
X        8.77415000      19.94125000      26.32245000      -0.47518702
X        7.17885000      21.53655000      26.32245000      -0.47518702
X        7.17885000      19.94125000      27.91775000      -0.31624313
X        8.77415000      21.53655000      26.32245000      -0.47518702
X        8.77415000      19.94125000      27.91775000      -0.31624313
X        7.17885000      21.53655000      27.91775000      -0.31624313
X        8.77415000      21.53655000      27.91775000      -0.31624313
W        6.38120000      19.14360000      28.71540000      -0.22145376
W        7.97650000      20.73890000      30.31070000      -0.08001555
X        7.17885000      19.94125000      29.51305000      -0.14006646
X        8.77415000      19.94125000      29.51305000      -0.14006646
X        7.17885000      21.53655000      29.51305000      -0.14006646
X        7.17885000      19.94125000      31.10835000      -0.04128609
X        8.77415000      21.53655000      29.51305000      -0.14006646
X        8.77415000      19.94125000      31.10835000      -0.04128609
X        7.17885000      21.53655000      31.10835000      -0.04128609
X        8.77415000      21.53655000      31.10835000      -0.04128609
W        6.38120000      19.14360000      31.90600000      -0.01924076
Ta       7.97650000      20.73890000      33.50130000      -0.00307912
X        7.17885000      19.94125000      32.70365000      -0.00809897
X        8.77415000      19.94125000      32.70365000      -0.00809897
X        7.17885000      21.53655000      32.70365000      -0.00809897
X        7.17885000      19.94125000      34.29895000      -0.00105733
X        8.77415000      21.53655000      32.70365000      -0.00809897
X        8.77415000      19.94125000      34.29895000      -0.00105733
X        7.17885000      21.53655000      34.29895000      -0.00105733
X        8.77415000      21.53655000      34.29895000      -0.00105733
W        6.38120000      19.14360000      35.09660000      -0.00032793
Ta       7.97650000      20.73890000      36.69190000      -0.00002324
X        7.17885000      19.94125000      35.89425000      -0.00009187
X        8.77415000      19.94125000      35.89425000      -0.00009187
X        7.17885000      21.53655000      35.89425000      -0.00009187
X        7.17885000      19.94125000      37.48955000      -0.00000531
X        8.77415000      21.53655000      35.89425000      -0.00009187
X        8.77415000      19.94125000      37.48955000      -0.00000531
X        7.17885000      21.53655000      37.48955000      -0.00000531
X        8.77415000      21.53655000      37.48955000      -0.00000531
W        6.38120000      19.14360000      38.28720000      -0.00000110
W        7.97650000      20.73890000      39.88250000      -0.00000003
X        7.17885000      19.94125000      39.08485000      -0.00000020
X        8.77415000      19.94125000      39.08485000      -0.00000020
X        7.17885000      21.53655000      39.08485000      -0.00000020
X        7.17885000      19.94125000      40.68015000      -0.00000001
X        8.77415000      21.53655000      39.08485000      -0.00000020
X        8.77415000      19.94125000      40.68015000      -0.00000001
X        7.17885000      21.53655000      40.68015000      -0.00000001
X        8.77415000      21.53655000      40.68015000      -0.00000001
W        6.38120000      19.14360000      41.47780000      -0.00000000
W        7.97650000      20.73890000      43.07310000      -0.00000000
X        7.17885000      19.94125000      42.27545000      -0.00000000
X        8.77415000      19.94125000      42.27545000      -0.00000000
X        7.17885000      21.53655000      42.27545000      -0.00000000
X        7.17885000      19.94125000      43.87075000      -0.00000000
X        8.77415000      21.53655000      42.27545000      -0.00000000
X        8.77415000      19.94125000      43.87075000      -0.00000000
X        7.17885000      21.53655000      43.87075000      -0.00000000
X        8.77415000      21.53655000      43.87075000      -0.00000000
W        6.38120000      19.14360000      44.66840000      -0.00000000
W        7.97650000      20.73890000      46.26370000      -0.00000000
X        7.17885000      19.94125000      45.46605000      -0.00000000
X        8.77415000      19.94125000      45.46605000      -0.00000000
X        7.17885000      21.53655000      45.46605000      -0.00000000
X        7.17885000      19.94125000      47.06135000      -0.00000000
X        8.77415000      21.53655000      45.46605000      -0.00000000
X        8.77415000      19.94125000      47.06135000      -0.00000000
X        7.17885000      21.53655000      47.06135000      -0.00000000
X        8.77415000      21.53655000      47.06135000      -0.00000000
Ta       6.38120000      19.14360000      47.85900000      -0.00000000
W        7.97650000      20.73890000      49.45430000      -0.00000000
X        7.17885000      19.94125000      48.65665000      -0.00000000
X        8.77415000      19.94125000      48.65665000      -0.00000000
X        7.17885000      21.53655000      48.65665000      -0.00000000
X        7.17885000      19.94125000      50.25195000      -0.00000000
X        8.77415000      21.53655000      48.65665000      -0.00000000
X        8.77415000      19.94125000      50.25195000      -0.00000000
X        7.17885000      21.53655000      50.25195000      -0.00000000
X        8.77415000      21.53655000      50.25195000      -0.00000000
Ta       6.38120000      22.33420000       0.00000000      -0.00000000
Ta       7.97650000      23.92950000       1.59530000      -0.00000000
X        7.17885000      23.13185000       0.79765000      -0.00000000
X        8.77415000      23.13185000       0.79765000      -0.00000000
X        7.17885000      24.72715000       0.79765000      -0.00000000
X        7.17885000      23.13185000       2.39295000      -0.00000000
X        8.77415000      24.72715000       0.79765000      -0.00000000
X        8.77415000      23.13185000       2.39295000      -0.00000000
X        7.17885000      24.72715000       2.39295000      -0.00000000
X        8.77415000      24.72715000       2.39295000      -0.00000000
W        6.38120000      22.33420000       3.19060000      -0.00000000
Ta       7.97650000      23.92950000       4.78590000      -0.00000000
X        7.17885000      23.13185000       3.98825000      -0.00000000
X        8.77415000      23.13185000       3.98825000      -0.00000000
X        7.17885000      24.72715000       3.98825000      -0.00000000
X        7.17885000      23.13185000       5.58355000      -0.00000000
X        8.77415000      24.72715000       3.98825000      -0.00000000
X        8.77415000      23.13185000       5.58355000      -0.00000000
X        7.17885000      24.72715000       5.58355000      -0.00000000
X        8.77415000      24.72715000       5.58355000      -0.00000000
W        6.38120000      22.33420000       6.38120000      -0.00000000
Ta       7.97650000      23.92950000       7.97650000      -0.00000000
X        7.17885000      23.13185000       7.17885000      -0.00000000
X        8.77415000      23.13185000       7.17885000      -0.00000000
X        7.17885000      24.72715000       7.17885000      -0.00000000
X        7.17885000      23.13185000       8.77415000      -0.00000000
X        8.77415000      24.72715000       7.17885000      -0.00000000
X        8.77415000      23.13185000       8.77415000      -0.00000000
X        7.17885000      24.72715000       8.77415000      -0.00000000
X        8.77415000      24.72715000       8.77415000      -0.00000000
W        6.38120000      22.33420000       9.57180000      -0.00000000
Ta       7.97650000      23.92950000      11.16710000      -0.00000003
X        7.17885000      23.13185000      10.36945000      -0.00000001
X        8.77415000      23.13185000      10.36945000      -0.00000001
X        7.17885000      24.72715000      10.36945000      -0.00000001
X        7.17885000      23.13185000      11.96475000      -0.00000020
X        8.77415000      24.72715000      10.36945000      -0.00000001
X        8.77415000      23.13185000      11.96475000      -0.00000020
X        7.17885000      24.72715000      11.96475000      -0.00000020
X        8.77415000      24.72715000      11.96475000      -0.00000020
W        6.38120000      22.33420000      12.76240000      -0.00000110
W        7.97650000      23.92950000      14.35770000      -0.00002324
X        7.17885000      23.13185000      13.56005000      -0.00000531
X        8.77415000      23.13185000      13.56005000      -0.00000531
X        7.17885000      24.72715000      13.56005000      -0.00000531
X        7.17885000      23.13185000      15.15535000      -0.00009187
X        8.77415000      24.72715000      13.56005000      -0.00000531
X        8.77415000      23.13185000      15.15535000      -0.00009187
X        7.17885000      24.72715000      15.15535000      -0.00009187
X        8.77415000      24.72715000      15.15535000      -0.00009187
W        6.38120000      22.33420000      15.95300000      -0.00032793
W        7.97650000      23.92950000      17.54830000      -0.00307912
X        7.17885000      23.13185000      16.75065000      -0.00105733
X        8.77415000      23.13185000      16.75065000      -0.00105733
X        7.17885000      24.72715000      16.75065000      -0.00105733
X        7.17885000      23.13185000      18.34595000      -0.00809897
X        8.77415000      24.72715000      16.75065000      -0.00105733
X        8.77415000      23.13185000      18.34595000      -0.00809897
X        7.17885000      24.72715000      18.34595000      -0.00809897
X        8.77415000      24.72715000      18.34595000      -0.00809897
W        6.38120000      22.33420000      19.14360000      -0.01924076
W        7.97650000      23.92950000      20.73890000      -0.08001555
X        7.17885000      23.13185000      19.94125000      -0.04128609
X        8.77415000      23.13185000      19.94125000      -0.04128609
X        7.17885000      24.72715000      19.94125000      -0.04128609
X        7.17885000      23.13185000      21.53655000      -0.14006646
X        8.77415000      24.72715000      19.94125000      -0.04128609
X        8.77415000      23.13185000      21.53655000      -0.14006646
X        7.17885000      24.72715000      21.53655000      -0.14006646
X        8.77415000      24.72715000      21.53655000      -0.14006646
W        6.38120000      22.33420000      22.33420000      -0.22145376
W        7.97650000      23.92950000      23.92950000      -0.40789490
X        7.17885000      23.13185000      23.13185000      -0.31624313
X        8.77415000      23.13185000      23.13185000      -0.31624313
X        7.17885000      24.72715000      23.13185000      -0.31624313
X        7.17885000      23.13185000      24.72715000      -0.47518702
X        8.77415000      24.72715000      23.13185000      -0.31624313
X        8.77415000      23.13185000      24.72715000      -0.47518702
X        7.17885000      24.72715000      24.72715000      -0.47518702
X        8.77415000      24.72715000      24.72715000      -0.47518702
W        6.38120000      22.33420000      25.52480000      -0.50000000
W        7.97650000      23.92950000      27.12010000      -0.40789490
X        7.17885000      23.13185000      26.32245000      -0.47518702
X        8.77415000      23.13185000      26.32245000      -0.47518702
X        7.17885000      24.72715000      26.32245000      -0.47518702
X        7.17885000      23.13185000      27.91775000      -0.31624313
X        8.77415000      24.72715000      26.32245000      -0.47518702
X        8.77415000      23.13185000      27.91775000      -0.31624313
X        7.17885000      24.72715000      27.91775000      -0.31624313
X        8.77415000      24.72715000      27.91775000      -0.31624313
W        6.38120000      22.33420000      28.71540000      -0.22145376
W        7.97650000      23.92950000      30.31070000      -0.08001555
X        7.17885000      23.13185000      29.51305000      -0.14006646
X        8.77415000      23.13185000      29.51305000      -0.14006646
X        7.17885000      24.72715000      29.51305000      -0.14006646
X        7.17885000      23.13185000      31.10835000      -0.04128609
X        8.77415000      24.72715000      29.51305000      -0.14006646
X        8.77415000      23.13185000      31.10835000      -0.04128609
X        7.17885000      24.72715000      31.10835000      -0.04128609
X        8.77415000      24.72715000      31.10835000      -0.04128609
W        6.38120000      22.33420000      31.90600000      -0.01924076
Ta       7.97650000      23.92950000      33.50130000      -0.00307912
X        7.17885000      23.13185000      32.70365000      -0.00809897
X        8.77415000      23.13185000      32.70365000      -0.00809897
X        7.17885000      24.72715000      32.70365000      -0.00809897
X        7.17885000      23.13185000      34.29895000      -0.00105733
X        8.77415000      24.72715000      32.70365000      -0.00809897
X        8.77415000      23.13185000      34.29895000      -0.00105733
X        7.17885000      24.72715000      34.29895000      -0.00105733
X        8.77415000      24.72715000      34.29895000      -0.00105733
W        6.38120000      22.33420000      35.09660000      -0.00032793
Ta       7.97650000      23.92950000      36.69190000      -0.00002324
X        7.17885000      23.13185000      35.89425000      -0.00009187
X        8.77415000      23.13185000      35.89425000      -0.00009187
X        7.17885000      24.72715000      35.89425000      -0.00009187
X        7.17885000      23.13185000      37.48955000      -0.00000531
X        8.77415000      24.72715000      35.89425000      -0.00009187
X        8.77415000      23.13185000      37.48955000      -0.00000531
X        7.17885000      24.72715000      37.48955000      -0.00000531
X        8.77415000      24.72715000      37.48955000      -0.00000531
W        6.38120000      22.33420000      38.28720000      -0.00000110
Ta       7.97650000      23.92950000      39.88250000      -0.00000003
X        7.17885000      23.13185000      39.08485000      -0.00000020
X        8.77415000      23.13185000      39.08485000      -0.00000020
X        7.17885000      24.72715000      39.08485000      -0.00000020
X        7.17885000      23.13185000      40.68015000      -0.00000001
X        8.77415000      24.72715000      39.08485000      -0.00000020
X        8.77415000      23.13185000      40.68015000      -0.00000001
X        7.17885000      24.72715000      40.68015000      -0.00000001
X        8.77415000      24.72715000      40.68015000      -0.00000001
W        6.38120000      22.33420000      41.47780000      -0.00000000
W        7.97650000      23.92950000      43.07310000      -0.00000000
X        7.17885000      23.13185000      42.27545000      -0.00000000
X        8.77415000      23.13185000      42.27545000      -0.00000000
X        7.17885000      24.72715000      42.27545000      -0.00000000
X        7.17885000      23.13185000      43.87075000      -0.00000000
X        8.77415000      24.72715000      42.27545000      -0.00000000
X        8.77415000      23.13185000      43.87075000      -0.00000000
X        7.17885000      24.72715000      43.87075000      -0.00000000
X        8.77415000      24.72715000      43.87075000      -0.00000000
Ta       6.38120000      22.33420000      44.66840000      -0.00000000
W        7.97650000      23.92950000      46.26370000      -0.00000000
X        7.17885000      23.13185000      45.46605000      -0.00000000
X        8.77415000      23.13185000      45.46605000      -0.00000000
X        7.17885000      24.72715000      45.46605000      -0.00000000
X        7.17885000      23.13185000      47.06135000      -0.00000000
X        8.77415000      24.72715000      45.46605000      -0.00000000
X        8.77415000      23.13185000      47.06135000      -0.00000000
X        7.17885000      24.72715000      47.06135000      -0.00000000
X        8.77415000      24.72715000      47.06135000      -0.00000000
W        6.38120000      22.33420000      47.85900000      -0.00000000
W        7.97650000      23.92950000      49.45430000      -0.00000000
X        7.17885000      23.13185000      48.65665000      -0.00000000
X        8.77415000      23.13185000      48.65665000      -0.00000000
X        7.17885000      24.72715000      48.65665000      -0.00000000
X        7.17885000      23.13185000      50.25195000      -0.00000000
X        8.77415000      24.72715000      48.65665000      -0.00000000
X        8.77415000      23.13185000      50.25195000      -0.00000000
X        7.17885000      24.72715000      50.25195000      -0.00000000
X        8.77415000      24.72715000      50.25195000      -0.00000000
W        6.38120000      25.52480000       0.00000000      -0.00000000
W        7.97650000      27.12010000       1.59530000      -0.00000000
X        7.17885000      26.32245000       0.79765000      -0.00000000
X        8.77415000      26.32245000       0.79765000      -0.00000000
X        7.17885000      27.91775000       0.79765000      -0.00000000
X        7.17885000      26.32245000       2.39295000      -0.00000000
X        8.77415000      27.91775000       0.79765000      -0.00000000
X        8.77415000      26.32245000       2.39295000      -0.00000000
X        7.17885000      27.91775000       2.39295000      -0.00000000
X        8.77415000      27.91775000       2.39295000      -0.00000000
W        6.38120000      25.52480000       3.19060000      -0.00000000
W        7.97650000      27.12010000       4.78590000      -0.00000000
X        7.17885000      26.32245000       3.98825000      -0.00000000
X        8.77415000      26.32245000       3.98825000      -0.00000000
X        7.17885000      27.91775000       3.98825000      -0.00000000
X        7.17885000      26.32245000       5.58355000      -0.00000000
X        8.77415000      27.91775000       3.98825000      -0.00000000
X        8.77415000      26.32245000       5.58355000      -0.00000000
X        7.17885000      27.91775000       5.58355000      -0.00000000
X        8.77415000      27.91775000       5.58355000      -0.00000000
W        6.38120000      25.52480000       6.38120000      -0.00000000
W        7.97650000      27.12010000       7.97650000      -0.00000000
X        7.17885000      26.32245000       7.17885000      -0.00000000
X        8.77415000      26.32245000       7.17885000      -0.00000000
X        7.17885000      27.91775000       7.17885000      -0.00000000
X        7.17885000      26.32245000       8.77415000      -0.00000000
X        8.77415000      27.91775000       7.17885000      -0.00000000
X        8.77415000      26.32245000       8.77415000      -0.00000000
X        7.17885000      27.91775000       8.77415000      -0.00000000
X        8.77415000      27.91775000       8.77415000      -0.00000000
Ta       6.38120000      25.52480000       9.57180000      -0.00000000
W        7.97650000      27.12010000      11.16710000      -0.00000003
X        7.17885000      26.32245000      10.36945000      -0.00000001
X        8.77415000      26.32245000      10.36945000      -0.00000001
X        7.17885000      27.91775000      10.36945000      -0.00000001
X        7.17885000      26.32245000      11.96475000      -0.00000020
X        8.77415000      27.91775000      10.36945000      -0.00000001
X        8.77415000      26.32245000      11.96475000      -0.00000020
X        7.17885000      27.91775000      11.96475000      -0.00000020
X        8.77415000      27.91775000      11.96475000      -0.00000020
W        6.38120000      25.52480000      12.76240000      -0.00000110
W        7.97650000      27.12010000      14.35770000      -0.00002324
X        7.17885000      26.32245000      13.56005000      -0.00000531
X        8.77415000      26.32245000      13.56005000      -0.00000531
X        7.17885000      27.91775000      13.56005000      -0.00000531
X        7.17885000      26.32245000      15.15535000      -0.00009187
X        8.77415000      27.91775000      13.56005000      -0.00000531
X        8.77415000      26.32245000      15.15535000      -0.00009187
X        7.17885000      27.91775000      15.15535000      -0.00009187
X        8.77415000      27.91775000      15.15535000      -0.00009187
W        6.38120000      25.52480000      15.95300000      -0.00032793
Ta       7.97650000      27.12010000      17.54830000      -0.00307912
X        7.17885000      26.32245000      16.75065000      -0.00105733
X        8.77415000      26.32245000      16.75065000      -0.00105733
X        7.17885000      27.91775000      16.75065000      -0.00105733
X        7.17885000      26.32245000      18.34595000      -0.00809897
X        8.77415000      27.91775000      16.75065000      -0.00105733
X        8.77415000      26.32245000      18.34595000      -0.00809897
X        7.17885000      27.91775000      18.34595000      -0.00809897
X        8.77415000      27.91775000      18.34595000      -0.00809897
W        6.38120000      25.52480000      19.14360000      -0.01924076
W        7.97650000      27.12010000      20.73890000      -0.08001555
X        7.17885000      26.32245000      19.94125000      -0.04128609
X        8.77415000      26.32245000      19.94125000      -0.04128609
X        7.17885000      27.91775000      19.94125000      -0.04128609
X        7.17885000      26.32245000      21.53655000      -0.14006646
X        8.77415000      27.91775000      19.94125000      -0.04128609
X        8.77415000      26.32245000      21.53655000      -0.14006646
X        7.17885000      27.91775000      21.53655000      -0.14006646
X        8.77415000      27.91775000      21.53655000      -0.14006646
Ta       6.38120000      25.52480000      22.33420000      -0.22145376
Ta       7.97650000      27.12010000      23.92950000      -0.40789490
X        7.17885000      26.32245000      23.13185000      -0.31624313
X        8.77415000      26.32245000      23.13185000      -0.31624313
X        7.17885000      27.91775000      23.13185000      -0.31624313
X        7.17885000      26.32245000      24.72715000      -0.47518702
X        8.77415000      27.91775000      23.13185000      -0.31624313
X        8.77415000      26.32245000      24.72715000      -0.47518702
X        7.17885000      27.91775000      24.72715000      -0.47518702
X        8.77415000      27.91775000      24.72715000      -0.47518702
W        6.38120000      25.52480000      25.52480000      -0.50000000
W        7.97650000      27.12010000      27.12010000      -0.40789490
X        7.17885000      26.32245000      26.32245000      -0.47518702
X        8.77415000      26.32245000      26.32245000      -0.47518702
X        7.17885000      27.91775000      26.32245000      -0.47518702
X        7.17885000      26.32245000      27.91775000      -0.31624313
X        8.77415000      27.91775000      26.32245000      -0.47518702
X        8.77415000      26.32245000      27.91775000      -0.31624313
X        7.17885000      27.91775000      27.91775000      -0.31624313
X        8.77415000      27.91775000      27.91775000      -0.31624313
W        6.38120000      25.52480000      28.71540000      -0.22145376
W        7.97650000      27.12010000      30.31070000      -0.08001555
X        7.17885000      26.32245000      29.51305000      -0.14006646
X        8.77415000      26.32245000      29.51305000      -0.14006646
X        7.17885000      27.91775000      29.51305000      -0.14006646
X        7.17885000      26.32245000      31.10835000      -0.04128609
X        8.77415000      27.91775000      29.51305000      -0.14006646
X        8.77415000      26.32245000      31.10835000      -0.04128609
X        7.17885000      27.91775000      31.10835000      -0.04128609
X        8.77415000      27.91775000      31.10835000      -0.04128609
W        6.38120000      25.52480000      31.90600000      -0.01924076
W        7.97650000      27.12010000      33.50130000      -0.00307912
X        7.17885000      26.32245000      32.70365000      -0.00809897
X        8.77415000      26.32245000      32.70365000      -0.00809897
X        7.17885000      27.91775000      32.70365000      -0.00809897
X        7.17885000      26.32245000      34.29895000      -0.00105733
X        8.77415000      27.91775000      32.70365000      -0.00809897
X        8.77415000      26.32245000      34.29895000      -0.00105733
X        7.17885000      27.91775000      34.29895000      -0.00105733
X        8.77415000      27.91775000      34.29895000      -0.00105733
W        6.38120000      25.52480000      35.09660000      -0.00032793
W        7.97650000      27.12010000      36.69190000      -0.00002324
X        7.17885000      26.32245000      35.89425000      -0.00009187
X        8.77415000      26.32245000      35.89425000      -0.00009187
X        7.17885000      27.91775000      35.89425000      -0.00009187
X        7.17885000      26.32245000      37.48955000      -0.00000531
X        8.77415000      27.91775000      35.89425000      -0.00009187
X        8.77415000      26.32245000      37.48955000      -0.00000531
X        7.17885000      27.91775000      37.48955000      -0.00000531
X        8.77415000      27.91775000      37.48955000      -0.00000531
Ta       6.38120000      25.52480000      38.28720000      -0.00000110
Ta       7.97650000      27.12010000      39.88250000      -0.00000003
X        7.17885000      26.32245000      39.08485000      -0.00000020
X        8.77415000      26.32245000      39.08485000      -0.00000020
X        7.17885000      27.91775000      39.08485000      -0.00000020
X        7.17885000      26.32245000      40.68015000      -0.00000001
X        8.77415000      27.91775000      39.08485000      -0.00000020
X        8.77415000      26.32245000      40.68015000      -0.00000001
X        7.17885000      27.91775000      40.68015000      -0.00000001
X        8.77415000      27.91775000      40.68015000      -0.00000001
W        6.38120000      25.52480000      41.47780000      -0.00000000
W        7.97650000      27.12010000      43.07310000      -0.00000000
X        7.17885000      26.32245000      42.27545000      -0.00000000
X        8.77415000      26.32245000      42.27545000      -0.00000000
X        7.17885000      27.91775000      42.27545000      -0.00000000
X        7.17885000      26.32245000      43.87075000      -0.00000000
X        8.77415000      27.91775000      42.27545000      -0.00000000
X        8.77415000      26.32245000      43.87075000      -0.00000000
X        7.17885000      27.91775000      43.87075000      -0.00000000
X        8.77415000      27.91775000      43.87075000      -0.00000000
Ta       6.38120000      25.52480000      44.66840000      -0.00000000
W        7.97650000      27.12010000      46.26370000      -0.00000000
X        7.17885000      26.32245000      45.46605000      -0.00000000
X        8.77415000      26.32245000      45.46605000      -0.00000000
X        7.17885000      27.91775000      45.46605000      -0.00000000
X        7.17885000      26.32245000      47.06135000      -0.00000000
X        8.77415000      27.91775000      45.46605000      -0.00000000
X        8.77415000      26.32245000      47.06135000      -0.00000000
X        7.17885000      27.91775000      47.06135000      -0.00000000
X        8.77415000      27.91775000      47.06135000      -0.00000000
W        6.38120000      25.52480000      47.85900000      -0.00000000
W        7.97650000      27.12010000      49.45430000      -0.00000000
X        7.17885000      26.32245000      48.65665000      -0.00000000
X        8.77415000      26.32245000      48.65665000      -0.00000000
X        7.17885000      27.91775000      48.65665000      -0.00000000
X        7.17885000      26.32245000      50.25195000      -0.00000000
X        8.77415000      27.91775000      48.65665000      -0.00000000
X        8.77415000      26.32245000      50.25195000      -0.00000000
X        7.17885000      27.91775000      50.25195000      -0.00000000
X        8.77415000      27.91775000      50.25195000      -0.00000000
W        6.38120000      28.71540000       0.00000000      -0.00000000
W        7.97650000      30.31070000       1.59530000      -0.00000000
X        7.17885000      29.51305000       0.79765000      -0.00000000
X        8.77415000      29.51305000       0.79765000      -0.00000000
X        7.17885000      31.10835000       0.79765000      -0.00000000
X        7.17885000      29.51305000       2.39295000      -0.00000000
X        8.77415000      31.10835000       0.79765000      -0.00000000
X        8.77415000      29.51305000       2.39295000      -0.00000000
X        7.17885000      31.10835000       2.39295000      -0.00000000
X        8.77415000      31.10835000       2.39295000      -0.00000000
W        6.38120000      28.71540000       3.19060000      -0.00000000
W        7.97650000      30.31070000       4.78590000      -0.00000000
X        7.17885000      29.51305000       3.98825000      -0.00000000
X        8.77415000      29.51305000       3.98825000      -0.00000000
X        7.17885000      31.10835000       3.98825000      -0.00000000
X        7.17885000      29.51305000       5.58355000      -0.00000000
X        8.77415000      31.10835000       3.98825000      -0.00000000
X        8.77415000      29.51305000       5.58355000      -0.00000000
X        7.17885000      31.10835000       5.58355000      -0.00000000
X        8.77415000      31.10835000       5.58355000      -0.00000000
W        6.38120000      28.71540000       6.38120000      -0.00000000
W        7.97650000      30.31070000       7.97650000      -0.00000000
X        7.17885000      29.51305000       7.17885000      -0.00000000
X        8.77415000      29.51305000       7.17885000      -0.00000000
X        7.17885000      31.10835000       7.17885000      -0.00000000
X        7.17885000      29.51305000       8.77415000      -0.00000000
X        8.77415000      31.10835000       7.17885000      -0.00000000
X        8.77415000      29.51305000       8.77415000      -0.00000000
X        7.17885000      31.10835000       8.77415000      -0.00000000
X        8.77415000      31.10835000       8.77415000      -0.00000000
W        6.38120000      28.71540000       9.57180000      -0.00000000
Ta       7.97650000      30.31070000      11.16710000      -0.00000003
X        7.17885000      29.51305000      10.36945000      -0.00000001
X        8.77415000      29.51305000      10.36945000      -0.00000001
X        7.17885000      31.10835000      10.36945000      -0.00000001
X        7.17885000      29.51305000      11.96475000      -0.00000020
X        8.77415000      31.10835000      10.36945000      -0.00000001
X        8.77415000      29.51305000      11.96475000      -0.00000020
X        7.17885000      31.10835000      11.96475000      -0.00000020
X        8.77415000      31.10835000      11.96475000      -0.00000020
Ta       6.38120000      28.71540000      12.76240000      -0.00000110
W        7.97650000      30.31070000      14.35770000      -0.00002324
X        7.17885000      29.51305000      13.56005000      -0.00000531
X        8.77415000      29.51305000      13.56005000      -0.00000531
X        7.17885000      31.10835000      13.56005000      -0.00000531
X        7.17885000      29.51305000      15.15535000      -0.00009187
X        8.77415000      31.10835000      13.56005000      -0.00000531
X        8.77415000      29.51305000      15.15535000      -0.00009187
X        7.17885000      31.10835000      15.15535000      -0.00009187
X        8.77415000      31.10835000      15.15535000      -0.00009187
Ta       6.38120000      28.71540000      15.95300000      -0.00032793
Ta       7.97650000      30.31070000      17.54830000      -0.00307912
X        7.17885000      29.51305000      16.75065000      -0.00105733
X        8.77415000      29.51305000      16.75065000      -0.00105733
X        7.17885000      31.10835000      16.75065000      -0.00105733
X        7.17885000      29.51305000      18.34595000      -0.00809897
X        8.77415000      31.10835000      16.75065000      -0.00105733
X        8.77415000      29.51305000      18.34595000      -0.00809897
X        7.17885000      31.10835000      18.34595000      -0.00809897
X        8.77415000      31.10835000      18.34595000      -0.00809897
Ta       6.38120000      28.71540000      19.14360000      -0.01924076
W        7.97650000      30.31070000      20.73890000      -0.08001555
X        7.17885000      29.51305000      19.94125000      -0.04128609
X        8.77415000      29.51305000      19.94125000      -0.04128609
X        7.17885000      31.10835000      19.94125000      -0.04128609
X        7.17885000      29.51305000      21.53655000      -0.14006646
X        8.77415000      31.10835000      19.94125000      -0.04128609
X        8.77415000      29.51305000      21.53655000      -0.14006646
X        7.17885000      31.10835000      21.53655000      -0.14006646
X        8.77415000      31.10835000      21.53655000      -0.14006646
W        6.38120000      28.71540000      22.33420000      -0.22145376
Ta       7.97650000      30.31070000      23.92950000      -0.40789490
X        7.17885000      29.51305000      23.13185000      -0.31624313
X        8.77415000      29.51305000      23.13185000      -0.31624313
X        7.17885000      31.10835000      23.13185000      -0.31624313
X        7.17885000      29.51305000      24.72715000      -0.47518702
X        8.77415000      31.10835000      23.13185000      -0.31624313
X        8.77415000      29.51305000      24.72715000      -0.47518702
X        7.17885000      31.10835000      24.72715000      -0.47518702
X        8.77415000      31.10835000      24.72715000      -0.47518702
Ta       6.38120000      28.71540000      25.52480000      -0.50000000
W        7.97650000      30.31070000      27.12010000      -0.40789490
X        7.17885000      29.51305000      26.32245000      -0.47518702
X        8.77415000      29.51305000      26.32245000      -0.47518702
X        7.17885000      31.10835000      26.32245000      -0.47518702
X        7.17885000      29.51305000      27.91775000      -0.31624313
X        8.77415000      31.10835000      26.32245000      -0.47518702
X        8.77415000      29.51305000      27.91775000      -0.31624313
X        7.17885000      31.10835000      27.91775000      -0.31624313
X        8.77415000      31.10835000      27.91775000      -0.31624313
W        6.38120000      28.71540000      28.71540000      -0.22145376
Ta       7.97650000      30.31070000      30.31070000      -0.08001555
X        7.17885000      29.51305000      29.51305000      -0.14006646
X        8.77415000      29.51305000      29.51305000      -0.14006646
X        7.17885000      31.10835000      29.51305000      -0.14006646
X        7.17885000      29.51305000      31.10835000      -0.04128609
X        8.77415000      31.10835000      29.51305000      -0.14006646
X        8.77415000      29.51305000      31.10835000      -0.04128609
X        7.17885000      31.10835000      31.10835000      -0.04128609
X        8.77415000      31.10835000      31.10835000      -0.04128609
W        6.38120000      28.71540000      31.90600000      -0.01924076
W        7.97650000      30.31070000      33.50130000      -0.00307912
X        7.17885000      29.51305000      32.70365000      -0.00809897
X        8.77415000      29.51305000      32.70365000      -0.00809897
X        7.17885000      31.10835000      32.70365000      -0.00809897
X        7.17885000      29.51305000      34.29895000      -0.00105733
X        8.77415000      31.10835000      32.70365000      -0.00809897
X        8.77415000      29.51305000      34.29895000      -0.00105733
X        7.17885000      31.10835000      34.29895000      -0.00105733
X        8.77415000      31.10835000      34.29895000      -0.00105733
W        6.38120000      28.71540000      35.09660000      -0.00032793
W        7.97650000      30.31070000      36.69190000      -0.00002324
X        7.17885000      29.51305000      35.89425000      -0.00009187
X        8.77415000      29.51305000      35.89425000      -0.00009187
X        7.17885000      31.10835000      35.89425000      -0.00009187
X        7.17885000      29.51305000      37.48955000      -0.00000531
X        8.77415000      31.10835000      35.89425000      -0.00009187
X        8.77415000      29.51305000      37.48955000      -0.00000531
X        7.17885000      31.10835000      37.48955000      -0.00000531
X        8.77415000      31.10835000      37.48955000      -0.00000531
W        6.38120000      28.71540000      38.28720000      -0.00000110
W        7.97650000      30.31070000      39.88250000      -0.00000003
X        7.17885000      29.51305000      39.08485000      -0.00000020
X        8.77415000      29.51305000      39.08485000      -0.00000020
X        7.17885000      31.10835000      39.08485000      -0.00000020
X        7.17885000      29.51305000      40.68015000      -0.00000001
X        8.77415000      31.10835000      39.08485000      -0.00000020
X        8.77415000      29.51305000      40.68015000      -0.00000001
X        7.17885000      31.10835000      40.68015000      -0.00000001
X        8.77415000      31.10835000      40.68015000      -0.00000001
W        6.38120000      28.71540000      41.47780000      -0.00000000
W        7.97650000      30.31070000      43.07310000      -0.00000000
X        7.17885000      29.51305000      42.27545000      -0.00000000
X        8.77415000      29.51305000      42.27545000      -0.00000000
X        7.17885000      31.10835000      42.27545000      -0.00000000
X        7.17885000      29.51305000      43.87075000      -0.00000000
X        8.77415000      31.10835000      42.27545000      -0.00000000
X        8.77415000      29.51305000      43.87075000      -0.00000000
X        7.17885000      31.10835000      43.87075000      -0.00000000
X        8.77415000      31.10835000      43.87075000      -0.00000000
W        6.38120000      28.71540000      44.66840000      -0.00000000
Ta       7.97650000      30.31070000      46.26370000      -0.00000000
X        7.17885000      29.51305000      45.46605000      -0.00000000
X        8.77415000      29.51305000      45.46605000      -0.00000000
X        7.17885000      31.10835000      45.46605000      -0.00000000
X        7.17885000      29.51305000      47.06135000      -0.00000000
X        8.77415000      31.10835000      45.46605000      -0.00000000
X        8.77415000      29.51305000      47.06135000      -0.00000000
X        7.17885000      31.10835000      47.06135000      -0.00000000
X        8.77415000      31.10835000      47.06135000      -0.00000000
W        6.38120000      28.71540000      47.85900000      -0.00000000
W        7.97650000      30.31070000      49.45430000      -0.00000000
X        7.17885000      29.51305000      48.65665000      -0.00000000
X        8.77415000      29.51305000      48.65665000      -0.00000000
X        7.17885000      31.10835000      48.65665000      -0.00000000
X        7.17885000      29.51305000      50.25195000      -0.00000000
X        8.77415000      31.10835000      48.65665000      -0.00000000
X        8.77415000      29.51305000      50.25195000      -0.00000000
X        7.17885000      31.10835000      50.25195000      -0.00000000
X        8.77415000      31.10835000      50.25195000      -0.00000000
Ta       6.38120000      31.90600000       0.00000000      -0.00000000
Ta       7.97650000      33.50130000       1.59530000      -0.00000000
X        7.17885000      32.70365000       0.79765000      -0.00000000
X        8.77415000      32.70365000       0.79765000      -0.00000000
X        7.17885000      34.29895000       0.79765000      -0.00000000
X        7.17885000      32.70365000       2.39295000      -0.00000000
X        8.77415000      34.29895000       0.79765000      -0.00000000
X        8.77415000      32.70365000       2.39295000      -0.00000000
X        7.17885000      34.29895000       2.39295000      -0.00000000
X        8.77415000      34.29895000       2.39295000      -0.00000000
W        6.38120000      31.90600000       3.19060000      -0.00000000
W        7.97650000      33.50130000       4.78590000      -0.00000000
X        7.17885000      32.70365000       3.98825000      -0.00000000
X        8.77415000      32.70365000       3.98825000      -0.00000000
X        7.17885000      34.29895000       3.98825000      -0.00000000
X        7.17885000      32.70365000       5.58355000      -0.00000000
X        8.77415000      34.29895000       3.98825000      -0.00000000
X        8.77415000      32.70365000       5.58355000      -0.00000000
X        7.17885000      34.29895000       5.58355000      -0.00000000
X        8.77415000      34.29895000       5.58355000      -0.00000000
W        6.38120000      31.90600000       6.38120000      -0.00000000
Ta       7.97650000      33.50130000       7.97650000      -0.00000000
X        7.17885000      32.70365000       7.17885000      -0.00000000
X        8.77415000      32.70365000       7.17885000      -0.00000000
X        7.17885000      34.29895000       7.17885000      -0.00000000
X        7.17885000      32.70365000       8.77415000      -0.00000000
X        8.77415000      34.29895000       7.17885000      -0.00000000
X        8.77415000      32.70365000       8.77415000      -0.00000000
X        7.17885000      34.29895000       8.77415000      -0.00000000
X        8.77415000      34.29895000       8.77415000      -0.00000000
W        6.38120000      31.90600000       9.57180000      -0.00000000
Ta       7.97650000      33.50130000      11.16710000      -0.00000003
X        7.17885000      32.70365000      10.36945000      -0.00000001
X        8.77415000      32.70365000      10.36945000      -0.00000001
X        7.17885000      34.29895000      10.36945000      -0.00000001
X        7.17885000      32.70365000      11.96475000      -0.00000020
X        8.77415000      34.29895000      10.36945000      -0.00000001
X        8.77415000      32.70365000      11.96475000      -0.00000020
X        7.17885000      34.29895000      11.96475000      -0.00000020
X        8.77415000      34.29895000      11.96475000      -0.00000020
W        6.38120000      31.90600000      12.76240000      -0.00000110
W        7.97650000      33.50130000      14.35770000      -0.00002324
X        7.17885000      32.70365000      13.56005000      -0.00000531
X        8.77415000      32.70365000      13.56005000      -0.00000531
X        7.17885000      34.29895000      13.56005000      -0.00000531
X        7.17885000      32.70365000      15.15535000      -0.00009187
X        8.77415000      34.29895000      13.56005000      -0.00000531
X        8.77415000      32.70365000      15.15535000      -0.00009187
X        7.17885000      34.29895000      15.15535000      -0.00009187
X        8.77415000      34.29895000      15.15535000      -0.00009187
W        6.38120000      31.90600000      15.95300000      -0.00032793
Ta       7.97650000      33.50130000      17.54830000      -0.00307912
X        7.17885000      32.70365000      16.75065000      -0.00105733
X        8.77415000      32.70365000      16.75065000      -0.00105733
X        7.17885000      34.29895000      16.75065000      -0.00105733
X        7.17885000      32.70365000      18.34595000      -0.00809897
X        8.77415000      34.29895000      16.75065000      -0.00105733
X        8.77415000      32.70365000      18.34595000      -0.00809897
X        7.17885000      34.29895000      18.34595000      -0.00809897
X        8.77415000      34.29895000      18.34595000      -0.00809897
W        6.38120000      31.90600000      19.14360000      -0.01924076
W        7.97650000      33.50130000      20.73890000      -0.08001555
X        7.17885000      32.70365000      19.94125000      -0.04128609
X        8.77415000      32.70365000      19.94125000      -0.04128609
X        7.17885000      34.29895000      19.94125000      -0.04128609
X        7.17885000      32.70365000      21.53655000      -0.14006646
X        8.77415000      34.29895000      19.94125000      -0.04128609
X        8.77415000      32.70365000      21.53655000      -0.14006646
X        7.17885000      34.29895000      21.53655000      -0.14006646
X        8.77415000      34.29895000      21.53655000      -0.14006646
W        6.38120000      31.90600000      22.33420000      -0.22145376
W        7.97650000      33.50130000      23.92950000      -0.40789490
X        7.17885000      32.70365000      23.13185000      -0.31624313
X        8.77415000      32.70365000      23.13185000      -0.31624313
X        7.17885000      34.29895000      23.13185000      -0.31624313
X        7.17885000      32.70365000      24.72715000      -0.47518702
X        8.77415000      34.29895000      23.13185000      -0.31624313
X        8.77415000      32.70365000      24.72715000      -0.47518702
X        7.17885000      34.29895000      24.72715000      -0.47518702
X        8.77415000      34.29895000      24.72715000      -0.47518702
W        6.38120000      31.90600000      25.52480000      -0.50000000
W        7.97650000      33.50130000      27.12010000      -0.40789490
X        7.17885000      32.70365000      26.32245000      -0.47518702
X        8.77415000      32.70365000      26.32245000      -0.47518702
X        7.17885000      34.29895000      26.32245000      -0.47518702
X        7.17885000      32.70365000      27.91775000      -0.31624313
X        8.77415000      34.29895000      26.32245000      -0.47518702
X        8.77415000      32.70365000      27.91775000      -0.31624313
X        7.17885000      34.29895000      27.91775000      -0.31624313
X        8.77415000      34.29895000      27.91775000      -0.31624313
W        6.38120000      31.90600000      28.71540000      -0.22145376
Ta       7.97650000      33.50130000      30.31070000      -0.08001555
X        7.17885000      32.70365000      29.51305000      -0.14006646
X        8.77415000      32.70365000      29.51305000      -0.14006646
X        7.17885000      34.29895000      29.51305000      -0.14006646
X        7.17885000      32.70365000      31.10835000      -0.04128609
X        8.77415000      34.29895000      29.51305000      -0.14006646
X        8.77415000      32.70365000      31.10835000      -0.04128609
X        7.17885000      34.29895000      31.10835000      -0.04128609
X        8.77415000      34.29895000      31.10835000      -0.04128609
W        6.38120000      31.90600000      31.90600000      -0.01924076
W        7.97650000      33.50130000      33.50130000      -0.00307912
X        7.17885000      32.70365000      32.70365000      -0.00809897
X        8.77415000      32.70365000      32.70365000      -0.00809897
X        7.17885000      34.29895000      32.70365000      -0.00809897
X        7.17885000      32.70365000      34.29895000      -0.00105733
X        8.77415000      34.29895000      32.70365000      -0.00809897
X        8.77415000      32.70365000      34.29895000      -0.00105733
X        7.17885000      34.29895000      34.29895000      -0.00105733
X        8.77415000      34.29895000      34.29895000      -0.00105733
W        6.38120000      31.90600000      35.09660000      -0.00032793
W        7.97650000      33.50130000      36.69190000      -0.00002324
X        7.17885000      32.70365000      35.89425000      -0.00009187
X        8.77415000      32.70365000      35.89425000      -0.00009187
X        7.17885000      34.29895000      35.89425000      -0.00009187
X        7.17885000      32.70365000      37.48955000      -0.00000531
X        8.77415000      34.29895000      35.89425000      -0.00009187
X        8.77415000      32.70365000      37.48955000      -0.00000531
X        7.17885000      34.29895000      37.48955000      -0.00000531
X        8.77415000      34.29895000      37.48955000      -0.00000531
Ta       6.38120000      31.90600000      38.28720000      -0.00000110
W        7.97650000      33.50130000      39.88250000      -0.00000003
X        7.17885000      32.70365000      39.08485000      -0.00000020
X        8.77415000      32.70365000      39.08485000      -0.00000020
X        7.17885000      34.29895000      39.08485000      -0.00000020
X        7.17885000      32.70365000      40.68015000      -0.00000001
X        8.77415000      34.29895000      39.08485000      -0.00000020
X        8.77415000      32.70365000      40.68015000      -0.00000001
X        7.17885000      34.29895000      40.68015000      -0.00000001
X        8.77415000      34.29895000      40.68015000      -0.00000001
W        6.38120000      31.90600000      41.47780000      -0.00000000
W        7.97650000      33.50130000      43.07310000      -0.00000000
X        7.17885000      32.70365000      42.27545000      -0.00000000
X        8.77415000      32.70365000      42.27545000      -0.00000000
X        7.17885000      34.29895000      42.27545000      -0.00000000
X        7.17885000      32.70365000      43.87075000      -0.00000000
X        8.77415000      34.29895000      42.27545000      -0.00000000
X        8.77415000      32.70365000      43.87075000      -0.00000000
X        7.17885000      34.29895000      43.87075000      -0.00000000
X        8.77415000      34.29895000      43.87075000      -0.00000000
Ta       6.38120000      31.90600000      44.66840000      -0.00000000
W        7.97650000      33.50130000      46.26370000      -0.00000000
X        7.17885000      32.70365000      45.46605000      -0.00000000
X        8.77415000      32.70365000      45.46605000      -0.00000000
X        7.17885000      34.29895000      45.46605000      -0.00000000
X        7.17885000      32.70365000      47.06135000      -0.00000000
X        8.77415000      34.29895000      45.46605000      -0.00000000
X        8.77415000      32.70365000      47.06135000      -0.00000000
X        7.17885000      34.29895000      47.06135000      -0.00000000
X        8.77415000      34.29895000      47.06135000      -0.00000000
W        6.38120000      31.90600000      47.85900000      -0.00000000
W        7.97650000      33.50130000      49.45430000      -0.00000000
X        7.17885000      32.70365000      48.65665000      -0.00000000
X        8.77415000      32.70365000      48.65665000      -0.00000000
X        7.17885000      34.29895000      48.65665000      -0.00000000
X        7.17885000      32.70365000      50.25195000      -0.00000000
X        8.77415000      34.29895000      48.65665000      -0.00000000
X        8.77415000      32.70365000      50.25195000      -0.00000000
X        7.17885000      34.29895000      50.25195000      -0.00000000
X        8.77415000      34.29895000      50.25195000      -0.00000000
W        6.38120000      35.09660000       0.00000000      -0.00000000
W        7.97650000      36.69190000       1.59530000      -0.00000000
X        7.17885000      35.89425000       0.79765000      -0.00000000
X        8.77415000      35.89425000       0.79765000      -0.00000000
X        7.17885000      37.48955000       0.79765000      -0.00000000
X        7.17885000      35.89425000       2.39295000      -0.00000000
X        8.77415000      37.48955000       0.79765000      -0.00000000
X        8.77415000      35.89425000       2.39295000      -0.00000000
X        7.17885000      37.48955000       2.39295000      -0.00000000
X        8.77415000      37.48955000       2.39295000      -0.00000000
W        6.38120000      35.09660000       3.19060000      -0.00000000
Ta       7.97650000      36.69190000       4.78590000      -0.00000000
X        7.17885000      35.89425000       3.98825000      -0.00000000
X        8.77415000      35.89425000       3.98825000      -0.00000000
X        7.17885000      37.48955000       3.98825000      -0.00000000
X        7.17885000      35.89425000       5.58355000      -0.00000000
X        8.77415000      37.48955000       3.98825000      -0.00000000
X        8.77415000      35.89425000       5.58355000      -0.00000000
X        7.17885000      37.48955000       5.58355000      -0.00000000
X        8.77415000      37.48955000       5.58355000      -0.00000000
Ta       6.38120000      35.09660000       6.38120000      -0.00000000
W        7.97650000      36.69190000       7.97650000      -0.00000000
X        7.17885000      35.89425000       7.17885000      -0.00000000
X        8.77415000      35.89425000       7.17885000      -0.00000000
X        7.17885000      37.48955000       7.17885000      -0.00000000
X        7.17885000      35.89425000       8.77415000      -0.00000000
X        8.77415000      37.48955000       7.17885000      -0.00000000
X        8.77415000      35.89425000       8.77415000      -0.00000000
X        7.17885000      37.48955000       8.77415000      -0.00000000
X        8.77415000      37.48955000       8.77415000      -0.00000000
W        6.38120000      35.09660000       9.57180000      -0.00000000
W        7.97650000      36.69190000      11.16710000      -0.00000003
X        7.17885000      35.89425000      10.36945000      -0.00000001
X        8.77415000      35.89425000      10.36945000      -0.00000001
X        7.17885000      37.48955000      10.36945000      -0.00000001
X        7.17885000      35.89425000      11.96475000      -0.00000020
X        8.77415000      37.48955000      10.36945000      -0.00000001
X        8.77415000      35.89425000      11.96475000      -0.00000020
X        7.17885000      37.48955000      11.96475000      -0.00000020
X        8.77415000      37.48955000      11.96475000      -0.00000020
W        6.38120000      35.09660000      12.76240000      -0.00000110
W        7.97650000      36.69190000      14.35770000      -0.00002324
X        7.17885000      35.89425000      13.56005000      -0.00000531
X        8.77415000      35.89425000      13.56005000      -0.00000531
X        7.17885000      37.48955000      13.56005000      -0.00000531
X        7.17885000      35.89425000      15.15535000      -0.00009187
X        8.77415000      37.48955000      13.56005000      -0.00000531
X        8.77415000      35.89425000      15.15535000      -0.00009187
X        7.17885000      37.48955000      15.15535000      -0.00009187
X        8.77415000      37.48955000      15.15535000      -0.00009187
W        6.38120000      35.09660000      15.95300000      -0.00032793
W        7.97650000      36.69190000      17.54830000      -0.00307912
X        7.17885000      35.89425000      16.75065000      -0.00105733
X        8.77415000      35.89425000      16.75065000      -0.00105733
X        7.17885000      37.48955000      16.75065000      -0.00105733
X        7.17885000      35.89425000      18.34595000      -0.00809897
X        8.77415000      37.48955000      16.75065000      -0.00105733
X        8.77415000      35.89425000      18.34595000      -0.00809897
X        7.17885000      37.48955000      18.34595000      -0.00809897
X        8.77415000      37.48955000      18.34595000      -0.00809897
W        6.38120000      35.09660000      19.14360000      -0.01924076
W        7.97650000      36.69190000      20.73890000      -0.08001555
X        7.17885000      35.89425000      19.94125000      -0.04128609
X        8.77415000      35.89425000      19.94125000      -0.04128609
X        7.17885000      37.48955000      19.94125000      -0.04128609
X        7.17885000      35.89425000      21.53655000      -0.14006646
X        8.77415000      37.48955000      19.94125000      -0.04128609
X        8.77415000      35.89425000      21.53655000      -0.14006646
X        7.17885000      37.48955000      21.53655000      -0.14006646
X        8.77415000      37.48955000      21.53655000      -0.14006646
W        6.38120000      35.09660000      22.33420000      -0.22145376
W        7.97650000      36.69190000      23.92950000      -0.40789490
X        7.17885000      35.89425000      23.13185000      -0.31624313
X        8.77415000      35.89425000      23.13185000      -0.31624313
X        7.17885000      37.48955000      23.13185000      -0.31624313
X        7.17885000      35.89425000      24.72715000      -0.47518702
X        8.77415000      37.48955000      23.13185000      -0.31624313
X        8.77415000      35.89425000      24.72715000      -0.47518702
X        7.17885000      37.48955000      24.72715000      -0.47518702
X        8.77415000      37.48955000      24.72715000      -0.47518702
W        6.38120000      35.09660000      25.52480000      -0.50000000
W        7.97650000      36.69190000      27.12010000      -0.40789490
X        7.17885000      35.89425000      26.32245000      -0.47518702
X        8.77415000      35.89425000      26.32245000      -0.47518702
X        7.17885000      37.48955000      26.32245000      -0.47518702
X        7.17885000      35.89425000      27.91775000      -0.31624313
X        8.77415000      37.48955000      26.32245000      -0.47518702
X        8.77415000      35.89425000      27.91775000      -0.31624313
X        7.17885000      37.48955000      27.91775000      -0.31624313
X        8.77415000      37.48955000      27.91775000      -0.31624313
W        6.38120000      35.09660000      28.71540000      -0.22145376
W        7.97650000      36.69190000      30.31070000      -0.08001555
X        7.17885000      35.89425000      29.51305000      -0.14006646
X        8.77415000      35.89425000      29.51305000      -0.14006646
X        7.17885000      37.48955000      29.51305000      -0.14006646
X        7.17885000      35.89425000      31.10835000      -0.04128609
X        8.77415000      37.48955000      29.51305000      -0.14006646
X        8.77415000      35.89425000      31.10835000      -0.04128609
X        7.17885000      37.48955000      31.10835000      -0.04128609
X        8.77415000      37.48955000      31.10835000      -0.04128609
Ta       6.38120000      35.09660000      31.90600000      -0.01924076
W        7.97650000      36.69190000      33.50130000      -0.00307912
X        7.17885000      35.89425000      32.70365000      -0.00809897
X        8.77415000      35.89425000      32.70365000      -0.00809897
X        7.17885000      37.48955000      32.70365000      -0.00809897
X        7.17885000      35.89425000      34.29895000      -0.00105733
X        8.77415000      37.48955000      32.70365000      -0.00809897
X        8.77415000      35.89425000      34.29895000      -0.00105733
X        7.17885000      37.48955000      34.29895000      -0.00105733
X        8.77415000      37.48955000      34.29895000      -0.00105733
W        6.38120000      35.09660000      35.09660000      -0.00032793
W        7.97650000      36.69190000      36.69190000      -0.00002324
X        7.17885000      35.89425000      35.89425000      -0.00009187
X        8.77415000      35.89425000      35.89425000      -0.00009187
X        7.17885000      37.48955000      35.89425000      -0.00009187
X        7.17885000      35.89425000      37.48955000      -0.00000531
X        8.77415000      37.48955000      35.89425000      -0.00009187
X        8.77415000      35.89425000      37.48955000      -0.00000531
X        7.17885000      37.48955000      37.48955000      -0.00000531
X        8.77415000      37.48955000      37.48955000      -0.00000531
W        6.38120000      35.09660000      38.28720000      -0.00000110
W        7.97650000      36.69190000      39.88250000      -0.00000003
X        7.17885000      35.89425000      39.08485000      -0.00000020
X        8.77415000      35.89425000      39.08485000      -0.00000020
X        7.17885000      37.48955000      39.08485000      -0.00000020
X        7.17885000      35.89425000      40.68015000      -0.00000001
X        8.77415000      37.48955000      39.08485000      -0.00000020
X        8.77415000      35.89425000      40.68015000      -0.00000001
X        7.17885000      37.48955000      40.68015000      -0.00000001
X        8.77415000      37.48955000      40.68015000      -0.00000001
W        6.38120000      35.09660000      41.47780000      -0.00000000
W        7.97650000      36.69190000      43.07310000      -0.00000000
X        7.17885000      35.89425000      42.27545000      -0.00000000
X        8.77415000      35.89425000      42.27545000      -0.00000000
X        7.17885000      37.48955000      42.27545000      -0.00000000
X        7.17885000      35.89425000      43.87075000      -0.00000000
X        8.77415000      37.48955000      42.27545000      -0.00000000
X        8.77415000      35.89425000      43.87075000      -0.00000000
X        7.17885000      37.48955000      43.87075000      -0.00000000
X        8.77415000      37.48955000      43.87075000      -0.00000000
W        6.38120000      35.09660000      44.66840000      -0.00000000
W        7.97650000      36.69190000      46.26370000      -0.00000000
X        7.17885000      35.89425000      45.46605000      -0.00000000
X        8.77415000      35.89425000      45.46605000      -0.00000000
X        7.17885000      37.48955000      45.46605000      -0.00000000
X        7.17885000      35.89425000      47.06135000      -0.00000000
X        8.77415000      37.48955000      45.46605000      -0.00000000
X        8.77415000      35.89425000      47.06135000      -0.00000000
X        7.17885000      37.48955000      47.06135000      -0.00000000
X        8.77415000      37.48955000      47.06135000      -0.00000000
W        6.38120000      35.09660000      47.85900000      -0.00000000
W        7.97650000      36.69190000      49.45430000      -0.00000000
X        7.17885000      35.89425000      48.65665000      -0.00000000
X        8.77415000      35.89425000      48.65665000      -0.00000000
X        7.17885000      37.48955000      48.65665000      -0.00000000
X        7.17885000      35.89425000      50.25195000      -0.00000000
X        8.77415000      37.48955000      48.65665000      -0.00000000
X        8.77415000      35.89425000      50.25195000      -0.00000000
X        7.17885000      37.48955000      50.25195000      -0.00000000
X        8.77415000      37.48955000      50.25195000      -0.00000000
Ta       6.38120000      38.28720000       0.00000000      -0.00000000
W        7.97650000      39.88250000       1.59530000      -0.00000000
X        7.17885000      39.08485000       0.79765000      -0.00000000
X        8.77415000      39.08485000       0.79765000      -0.00000000
X        7.17885000      40.68015000       0.79765000      -0.00000000
X        7.17885000      39.08485000       2.39295000      -0.00000000
X        8.77415000      40.68015000       0.79765000      -0.00000000
X        8.77415000      39.08485000       2.39295000      -0.00000000
X        7.17885000      40.68015000       2.39295000      -0.00000000
X        8.77415000      40.68015000       2.39295000      -0.00000000
W        6.38120000      38.28720000       3.19060000      -0.00000000
W        7.97650000      39.88250000       4.78590000      -0.00000000
X        7.17885000      39.08485000       3.98825000      -0.00000000
X        8.77415000      39.08485000       3.98825000      -0.00000000
X        7.17885000      40.68015000       3.98825000      -0.00000000
X        7.17885000      39.08485000       5.58355000      -0.00000000
X        8.77415000      40.68015000       3.98825000      -0.00000000
X        8.77415000      39.08485000       5.58355000      -0.00000000
X        7.17885000      40.68015000       5.58355000      -0.00000000
X        8.77415000      40.68015000       5.58355000      -0.00000000
W        6.38120000      38.28720000       6.38120000      -0.00000000
W        7.97650000      39.88250000       7.97650000      -0.00000000
X        7.17885000      39.08485000       7.17885000      -0.00000000
X        8.77415000      39.08485000       7.17885000      -0.00000000
X        7.17885000      40.68015000       7.17885000      -0.00000000
X        7.17885000      39.08485000       8.77415000      -0.00000000
X        8.77415000      40.68015000       7.17885000      -0.00000000
X        8.77415000      39.08485000       8.77415000      -0.00000000
X        7.17885000      40.68015000       8.77415000      -0.00000000
X        8.77415000      40.68015000       8.77415000      -0.00000000
Ta       6.38120000      38.28720000       9.57180000      -0.00000000
W        7.97650000      39.88250000      11.16710000      -0.00000003
X        7.17885000      39.08485000      10.36945000      -0.00000001
X        8.77415000      39.08485000      10.36945000      -0.00000001
X        7.17885000      40.68015000      10.36945000      -0.00000001
X        7.17885000      39.08485000      11.96475000      -0.00000020
X        8.77415000      40.68015000      10.36945000      -0.00000001
X        8.77415000      39.08485000      11.96475000      -0.00000020
X        7.17885000      40.68015000      11.96475000      -0.00000020
X        8.77415000      40.68015000      11.96475000      -0.00000020
W        6.38120000      38.28720000      12.76240000      -0.00000110
W        7.97650000      39.88250000      14.35770000      -0.00002324
X        7.17885000      39.08485000      13.56005000      -0.00000531
X        8.77415000      39.08485000      13.56005000      -0.00000531
X        7.17885000      40.68015000      13.56005000      -0.00000531
X        7.17885000      39.08485000      15.15535000      -0.00009187
X        8.77415000      40.68015000      13.56005000      -0.00000531
X        8.77415000      39.08485000      15.15535000      -0.00009187
X        7.17885000      40.68015000      15.15535000      -0.00009187
X        8.77415000      40.68015000      15.15535000      -0.00009187
W        6.38120000      38.28720000      15.95300000      -0.00032793
W        7.97650000      39.88250000      17.54830000      -0.00307912
X        7.17885000      39.08485000      16.75065000      -0.00105733
X        8.77415000      39.08485000      16.75065000      -0.00105733
X        7.17885000      40.68015000      16.75065000      -0.00105733
X        7.17885000      39.08485000      18.34595000      -0.00809897
X        8.77415000      40.68015000      16.75065000      -0.00105733
X        8.77415000      39.08485000      18.34595000      -0.00809897
X        7.17885000      40.68015000      18.34595000      -0.00809897
X        8.77415000      40.68015000      18.34595000      -0.00809897
W        6.38120000      38.28720000      19.14360000      -0.01924076
Ta       7.97650000      39.88250000      20.73890000      -0.08001555
X        7.17885000      39.08485000      19.94125000      -0.04128609
X        8.77415000      39.08485000      19.94125000      -0.04128609
X        7.17885000      40.68015000      19.94125000      -0.04128609
X        7.17885000      39.08485000      21.53655000      -0.14006646
X        8.77415000      40.68015000      19.94125000      -0.04128609
X        8.77415000      39.08485000      21.53655000      -0.14006646
X        7.17885000      40.68015000      21.53655000      -0.14006646
X        8.77415000      40.68015000      21.53655000      -0.14006646
W        6.38120000      38.28720000      22.33420000      -0.22145376
W        7.97650000      39.88250000      23.92950000      -0.40789490
X        7.17885000      39.08485000      23.13185000      -0.31624313
X        8.77415000      39.08485000      23.13185000      -0.31624313
X        7.17885000      40.68015000      23.13185000      -0.31624313
X        7.17885000      39.08485000      24.72715000      -0.47518702
X        8.77415000      40.68015000      23.13185000      -0.31624313
X        8.77415000      39.08485000      24.72715000      -0.47518702
X        7.17885000      40.68015000      24.72715000      -0.47518702
X        8.77415000      40.68015000      24.72715000      -0.47518702
W        6.38120000      38.28720000      25.52480000      -0.50000000
W        7.97650000      39.88250000      27.12010000      -0.40789490
X        7.17885000      39.08485000      26.32245000      -0.47518702
X        8.77415000      39.08485000      26.32245000      -0.47518702
X        7.17885000      40.68015000      26.32245000      -0.47518702
X        7.17885000      39.08485000      27.91775000      -0.31624313
X        8.77415000      40.68015000      26.32245000      -0.47518702
X        8.77415000      39.08485000      27.91775000      -0.31624313
X        7.17885000      40.68015000      27.91775000      -0.31624313
X        8.77415000      40.68015000      27.91775000      -0.31624313
W        6.38120000      38.28720000      28.71540000      -0.22145376
W        7.97650000      39.88250000      30.31070000      -0.08001555
X        7.17885000      39.08485000      29.51305000      -0.14006646
X        8.77415000      39.08485000      29.51305000      -0.14006646
X        7.17885000      40.68015000      29.51305000      -0.14006646
X        7.17885000      39.08485000      31.10835000      -0.04128609
X        8.77415000      40.68015000      29.51305000      -0.14006646
X        8.77415000      39.08485000      31.10835000      -0.04128609
X        7.17885000      40.68015000      31.10835000      -0.04128609
X        8.77415000      40.68015000      31.10835000      -0.04128609
W        6.38120000      38.28720000      31.90600000      -0.01924076
W        7.97650000      39.88250000      33.50130000      -0.00307912
X        7.17885000      39.08485000      32.70365000      -0.00809897
X        8.77415000      39.08485000      32.70365000      -0.00809897
X        7.17885000      40.68015000      32.70365000      -0.00809897
X        7.17885000      39.08485000      34.29895000      -0.00105733
X        8.77415000      40.68015000      32.70365000      -0.00809897
X        8.77415000      39.08485000      34.29895000      -0.00105733
X        7.17885000      40.68015000      34.29895000      -0.00105733
X        8.77415000      40.68015000      34.29895000      -0.00105733
W        6.38120000      38.28720000      35.09660000      -0.00032793
Ta       7.97650000      39.88250000      36.69190000      -0.00002324
X        7.17885000      39.08485000      35.89425000      -0.00009187
X        8.77415000      39.08485000      35.89425000      -0.00009187
X        7.17885000      40.68015000      35.89425000      -0.00009187
X        7.17885000      39.08485000      37.48955000      -0.00000531
X        8.77415000      40.68015000      35.89425000      -0.00009187
X        8.77415000      39.08485000      37.48955000      -0.00000531
X        7.17885000      40.68015000      37.48955000      -0.00000531
X        8.77415000      40.68015000      37.48955000      -0.00000531
W        6.38120000      38.28720000      38.28720000      -0.00000110
Ta       7.97650000      39.88250000      39.88250000      -0.00000003
X        7.17885000      39.08485000      39.08485000      -0.00000020
X        8.77415000      39.08485000      39.08485000      -0.00000020
X        7.17885000      40.68015000      39.08485000      -0.00000020
X        7.17885000      39.08485000      40.68015000      -0.00000001
X        8.77415000      40.68015000      39.08485000      -0.00000020
X        8.77415000      39.08485000      40.68015000      -0.00000001
X        7.17885000      40.68015000      40.68015000      -0.00000001
X        8.77415000      40.68015000      40.68015000      -0.00000001
Ta       6.38120000      38.28720000      41.47780000      -0.00000000
W        7.97650000      39.88250000      43.07310000      -0.00000000
X        7.17885000      39.08485000      42.27545000      -0.00000000
X        8.77415000      39.08485000      42.27545000      -0.00000000
X        7.17885000      40.68015000      42.27545000      -0.00000000
X        7.17885000      39.08485000      43.87075000      -0.00000000
X        8.77415000      40.68015000      42.27545000      -0.00000000
X        8.77415000      39.08485000      43.87075000      -0.00000000
X        7.17885000      40.68015000      43.87075000      -0.00000000
X        8.77415000      40.68015000      43.87075000      -0.00000000
W        6.38120000      38.28720000      44.66840000      -0.00000000
Ta       7.97650000      39.88250000      46.26370000      -0.00000000
X        7.17885000      39.08485000      45.46605000      -0.00000000
X        8.77415000      39.08485000      45.46605000      -0.00000000
X        7.17885000      40.68015000      45.46605000      -0.00000000
X        7.17885000      39.08485000      47.06135000      -0.00000000
X        8.77415000      40.68015000      45.46605000      -0.00000000
X        8.77415000      39.08485000      47.06135000      -0.00000000
X        7.17885000      40.68015000      47.06135000      -0.00000000
X        8.77415000      40.68015000      47.06135000      -0.00000000
W        6.38120000      38.28720000      47.85900000      -0.00000000
W        7.97650000      39.88250000      49.45430000      -0.00000000
X        7.17885000      39.08485000      48.65665000      -0.00000000
X        8.77415000      39.08485000      48.65665000      -0.00000000
X        7.17885000      40.68015000      48.65665000      -0.00000000
X        7.17885000      39.08485000      50.25195000      -0.00000000
X        8.77415000      40.68015000      48.65665000      -0.00000000
X        8.77415000      39.08485000      50.25195000      -0.00000000
X        7.17885000      40.68015000      50.25195000      -0.00000000
X        8.77415000      40.68015000      50.25195000      -0.00000000
W        6.38120000      41.47780000       0.00000000      -0.00000000
Ta       7.97650000      43.07310000       1.59530000      -0.00000000
X        7.17885000      42.27545000       0.79765000      -0.00000000
X        8.77415000      42.27545000       0.79765000      -0.00000000
X        7.17885000      43.87075000       0.79765000      -0.00000000
X        7.17885000      42.27545000       2.39295000      -0.00000000
X        8.77415000      43.87075000       0.79765000      -0.00000000
X        8.77415000      42.27545000       2.39295000      -0.00000000
X        7.17885000      43.87075000       2.39295000      -0.00000000
X        8.77415000      43.87075000       2.39295000      -0.00000000
Ta       6.38120000      41.47780000       3.19060000      -0.00000000
W        7.97650000      43.07310000       4.78590000      -0.00000000
X        7.17885000      42.27545000       3.98825000      -0.00000000
X        8.77415000      42.27545000       3.98825000      -0.00000000
X        7.17885000      43.87075000       3.98825000      -0.00000000
X        7.17885000      42.27545000       5.58355000      -0.00000000
X        8.77415000      43.87075000       3.98825000      -0.00000000
X        8.77415000      42.27545000       5.58355000      -0.00000000
X        7.17885000      43.87075000       5.58355000      -0.00000000
X        8.77415000      43.87075000       5.58355000      -0.00000000
W        6.38120000      41.47780000       6.38120000      -0.00000000
Ta       7.97650000      43.07310000       7.97650000      -0.00000000
X        7.17885000      42.27545000       7.17885000      -0.00000000
X        8.77415000      42.27545000       7.17885000      -0.00000000
X        7.17885000      43.87075000       7.17885000      -0.00000000
X        7.17885000      42.27545000       8.77415000      -0.00000000
X        8.77415000      43.87075000       7.17885000      -0.00000000
X        8.77415000      42.27545000       8.77415000      -0.00000000
X        7.17885000      43.87075000       8.77415000      -0.00000000
X        8.77415000      43.87075000       8.77415000      -0.00000000
Ta       6.38120000      41.47780000       9.57180000      -0.00000000
W        7.97650000      43.07310000      11.16710000      -0.00000003
X        7.17885000      42.27545000      10.36945000      -0.00000001
X        8.77415000      42.27545000      10.36945000      -0.00000001
X        7.17885000      43.87075000      10.36945000      -0.00000001
X        7.17885000      42.27545000      11.96475000      -0.00000020
X        8.77415000      43.87075000      10.36945000      -0.00000001
X        8.77415000      42.27545000      11.96475000      -0.00000020
X        7.17885000      43.87075000      11.96475000      -0.00000020
X        8.77415000      43.87075000      11.96475000      -0.00000020
W        6.38120000      41.47780000      12.76240000      -0.00000110
W        7.97650000      43.07310000      14.35770000      -0.00002324
X        7.17885000      42.27545000      13.56005000      -0.00000531
X        8.77415000      42.27545000      13.56005000      -0.00000531
X        7.17885000      43.87075000      13.56005000      -0.00000531
X        7.17885000      42.27545000      15.15535000      -0.00009187
X        8.77415000      43.87075000      13.56005000      -0.00000531
X        8.77415000      42.27545000      15.15535000      -0.00009187
X        7.17885000      43.87075000      15.15535000      -0.00009187
X        8.77415000      43.87075000      15.15535000      -0.00009187
W        6.38120000      41.47780000      15.95300000      -0.00032793
Ta       7.97650000      43.07310000      17.54830000      -0.00307912
X        7.17885000      42.27545000      16.75065000      -0.00105733
X        8.77415000      42.27545000      16.75065000      -0.00105733
X        7.17885000      43.87075000      16.75065000      -0.00105733
X        7.17885000      42.27545000      18.34595000      -0.00809897
X        8.77415000      43.87075000      16.75065000      -0.00105733
X        8.77415000      42.27545000      18.34595000      -0.00809897
X        7.17885000      43.87075000      18.34595000      -0.00809897
X        8.77415000      43.87075000      18.34595000      -0.00809897
W        6.38120000      41.47780000      19.14360000      -0.01924076
Ta       7.97650000      43.07310000      20.73890000      -0.08001555
X        7.17885000      42.27545000      19.94125000      -0.04128609
X        8.77415000      42.27545000      19.94125000      -0.04128609
X        7.17885000      43.87075000      19.94125000      -0.04128609
X        7.17885000      42.27545000      21.53655000      -0.14006646
X        8.77415000      43.87075000      19.94125000      -0.04128609
X        8.77415000      42.27545000      21.53655000      -0.14006646
X        7.17885000      43.87075000      21.53655000      -0.14006646
X        8.77415000      43.87075000      21.53655000      -0.14006646
W        6.38120000      41.47780000      22.33420000      -0.22145376
W        7.97650000      43.07310000      23.92950000      -0.40789490
X        7.17885000      42.27545000      23.13185000      -0.31624313
X        8.77415000      42.27545000      23.13185000      -0.31624313
X        7.17885000      43.87075000      23.13185000      -0.31624313
X        7.17885000      42.27545000      24.72715000      -0.47518702
X        8.77415000      43.87075000      23.13185000      -0.31624313
X        8.77415000      42.27545000      24.72715000      -0.47518702
X        7.17885000      43.87075000      24.72715000      -0.47518702
X        8.77415000      43.87075000      24.72715000      -0.47518702
W        6.38120000      41.47780000      25.52480000      -0.50000000
W        7.97650000      43.07310000      27.12010000      -0.40789490
X        7.17885000      42.27545000      26.32245000      -0.47518702
X        8.77415000      42.27545000      26.32245000      -0.47518702
X        7.17885000      43.87075000      26.32245000      -0.47518702
X        7.17885000      42.27545000      27.91775000      -0.31624313
X        8.77415000      43.87075000      26.32245000      -0.47518702
X        8.77415000      42.27545000      27.91775000      -0.31624313
X        7.17885000      43.87075000      27.91775000      -0.31624313
X        8.77415000      43.87075000      27.91775000      -0.31624313
Ta       6.38120000      41.47780000      28.71540000      -0.22145376
Ta       7.97650000      43.07310000      30.31070000      -0.08001555
X        7.17885000      42.27545000      29.51305000      -0.14006646
X        8.77415000      42.27545000      29.51305000      -0.14006646
X        7.17885000      43.87075000      29.51305000      -0.14006646
X        7.17885000      42.27545000      31.10835000      -0.04128609
X        8.77415000      43.87075000      29.51305000      -0.14006646
X        8.77415000      42.27545000      31.10835000      -0.04128609
X        7.17885000      43.87075000      31.10835000      -0.04128609
X        8.77415000      43.87075000      31.10835000      -0.04128609
Ta       6.38120000      41.47780000      31.90600000      -0.01924076
W        7.97650000      43.07310000      33.50130000      -0.00307912
X        7.17885000      42.27545000      32.70365000      -0.00809897
X        8.77415000      42.27545000      32.70365000      -0.00809897
X        7.17885000      43.87075000      32.70365000      -0.00809897
X        7.17885000      42.27545000      34.29895000      -0.00105733
X        8.77415000      43.87075000      32.70365000      -0.00809897
X        8.77415000      42.27545000      34.29895000      -0.00105733
X        7.17885000      43.87075000      34.29895000      -0.00105733
X        8.77415000      43.87075000      34.29895000      -0.00105733
W        6.38120000      41.47780000      35.09660000      -0.00032793
Ta       7.97650000      43.07310000      36.69190000      -0.00002324
X        7.17885000      42.27545000      35.89425000      -0.00009187
X        8.77415000      42.27545000      35.89425000      -0.00009187
X        7.17885000      43.87075000      35.89425000      -0.00009187
X        7.17885000      42.27545000      37.48955000      -0.00000531
X        8.77415000      43.87075000      35.89425000      -0.00009187
X        8.77415000      42.27545000      37.48955000      -0.00000531
X        7.17885000      43.87075000      37.48955000      -0.00000531
X        8.77415000      43.87075000      37.48955000      -0.00000531
Ta       6.38120000      41.47780000      38.28720000      -0.00000110
W        7.97650000      43.07310000      39.88250000      -0.00000003
X        7.17885000      42.27545000      39.08485000      -0.00000020
X        8.77415000      42.27545000      39.08485000      -0.00000020
X        7.17885000      43.87075000      39.08485000      -0.00000020
X        7.17885000      42.27545000      40.68015000      -0.00000001
X        8.77415000      43.87075000      39.08485000      -0.00000020
X        8.77415000      42.27545000      40.68015000      -0.00000001
X        7.17885000      43.87075000      40.68015000      -0.00000001
X        8.77415000      43.87075000      40.68015000      -0.00000001
W        6.38120000      41.47780000      41.47780000      -0.00000000
Ta       7.97650000      43.07310000      43.07310000      -0.00000000
X        7.17885000      42.27545000      42.27545000      -0.00000000
X        8.77415000      42.27545000      42.27545000      -0.00000000
X        7.17885000      43.87075000      42.27545000      -0.00000000
X        7.17885000      42.27545000      43.87075000      -0.00000000
X        8.77415000      43.87075000      42.27545000      -0.00000000
X        8.77415000      42.27545000      43.87075000      -0.00000000
X        7.17885000      43.87075000      43.87075000      -0.00000000
X        8.77415000      43.87075000      43.87075000      -0.00000000
W        6.38120000      41.47780000      44.66840000      -0.00000000
W        7.97650000      43.07310000      46.26370000      -0.00000000
X        7.17885000      42.27545000      45.46605000      -0.00000000
X        8.77415000      42.27545000      45.46605000      -0.00000000
X        7.17885000      43.87075000      45.46605000      -0.00000000
X        7.17885000      42.27545000      47.06135000      -0.00000000
X        8.77415000      43.87075000      45.46605000      -0.00000000
X        8.77415000      42.27545000      47.06135000      -0.00000000
X        7.17885000      43.87075000      47.06135000      -0.00000000
X        8.77415000      43.87075000      47.06135000      -0.00000000
W        6.38120000      41.47780000      47.85900000      -0.00000000
W        7.97650000      43.07310000      49.45430000      -0.00000000
X        7.17885000      42.27545000      48.65665000      -0.00000000
X        8.77415000      42.27545000      48.65665000      -0.00000000
X        7.17885000      43.87075000      48.65665000      -0.00000000
X        7.17885000      42.27545000      50.25195000      -0.00000000
X        8.77415000      43.87075000      48.65665000      -0.00000000
X        8.77415000      42.27545000      50.25195000      -0.00000000
X        7.17885000      43.87075000      50.25195000      -0.00000000
X        8.77415000      43.87075000      50.25195000      -0.00000000
Ta       6.38120000      44.66840000       0.00000000      -0.00000000
W        7.97650000      46.26370000       1.59530000      -0.00000000
X        7.17885000      45.46605000       0.79765000      -0.00000000
X        8.77415000      45.46605000       0.79765000      -0.00000000
X        7.17885000      47.06135000       0.79765000      -0.00000000
X        7.17885000      45.46605000       2.39295000      -0.00000000
X        8.77415000      47.06135000       0.79765000      -0.00000000
X        8.77415000      45.46605000       2.39295000      -0.00000000
X        7.17885000      47.06135000       2.39295000      -0.00000000
X        8.77415000      47.06135000       2.39295000      -0.00000000
W        6.38120000      44.66840000       3.19060000      -0.00000000
W        7.97650000      46.26370000       4.78590000      -0.00000000
X        7.17885000      45.46605000       3.98825000      -0.00000000
X        8.77415000      45.46605000       3.98825000      -0.00000000
X        7.17885000      47.06135000       3.98825000      -0.00000000
X        7.17885000      45.46605000       5.58355000      -0.00000000
X        8.77415000      47.06135000       3.98825000      -0.00000000
X        8.77415000      45.46605000       5.58355000      -0.00000000
X        7.17885000      47.06135000       5.58355000      -0.00000000
X        8.77415000      47.06135000       5.58355000      -0.00000000
W        6.38120000      44.66840000       6.38120000      -0.00000000
Ta       7.97650000      46.26370000       7.97650000      -0.00000000
X        7.17885000      45.46605000       7.17885000      -0.00000000
X        8.77415000      45.46605000       7.17885000      -0.00000000
X        7.17885000      47.06135000       7.17885000      -0.00000000
X        7.17885000      45.46605000       8.77415000      -0.00000000
X        8.77415000      47.06135000       7.17885000      -0.00000000
X        8.77415000      45.46605000       8.77415000      -0.00000000
X        7.17885000      47.06135000       8.77415000      -0.00000000
X        8.77415000      47.06135000       8.77415000      -0.00000000
W        6.38120000      44.66840000       9.57180000      -0.00000000
W        7.97650000      46.26370000      11.16710000      -0.00000003
X        7.17885000      45.46605000      10.36945000      -0.00000001
X        8.77415000      45.46605000      10.36945000      -0.00000001
X        7.17885000      47.06135000      10.36945000      -0.00000001
X        7.17885000      45.46605000      11.96475000      -0.00000020
X        8.77415000      47.06135000      10.36945000      -0.00000001
X        8.77415000      45.46605000      11.96475000      -0.00000020
X        7.17885000      47.06135000      11.96475000      -0.00000020
X        8.77415000      47.06135000      11.96475000      -0.00000020
W        6.38120000      44.66840000      12.76240000      -0.00000110
W        7.97650000      46.26370000      14.35770000      -0.00002324
X        7.17885000      45.46605000      13.56005000      -0.00000531
X        8.77415000      45.46605000      13.56005000      -0.00000531
X        7.17885000      47.06135000      13.56005000      -0.00000531
X        7.17885000      45.46605000      15.15535000      -0.00009187
X        8.77415000      47.06135000      13.56005000      -0.00000531
X        8.77415000      45.46605000      15.15535000      -0.00009187
X        7.17885000      47.06135000      15.15535000      -0.00009187
X        8.77415000      47.06135000      15.15535000      -0.00009187
W        6.38120000      44.66840000      15.95300000      -0.00032793
Ta       7.97650000      46.26370000      17.54830000      -0.00307912
X        7.17885000      45.46605000      16.75065000      -0.00105733
X        8.77415000      45.46605000      16.75065000      -0.00105733
X        7.17885000      47.06135000      16.75065000      -0.00105733
X        7.17885000      45.46605000      18.34595000      -0.00809897
X        8.77415000      47.06135000      16.75065000      -0.00105733
X        8.77415000      45.46605000      18.34595000      -0.00809897
X        7.17885000      47.06135000      18.34595000      -0.00809897
X        8.77415000      47.06135000      18.34595000      -0.00809897
W        6.38120000      44.66840000      19.14360000      -0.01924076
W        7.97650000      46.26370000      20.73890000      -0.08001555
X        7.17885000      45.46605000      19.94125000      -0.04128609
X        8.77415000      45.46605000      19.94125000      -0.04128609
X        7.17885000      47.06135000      19.94125000      -0.04128609
X        7.17885000      45.46605000      21.53655000      -0.14006646
X        8.77415000      47.06135000      19.94125000      -0.04128609
X        8.77415000      45.46605000      21.53655000      -0.14006646
X        7.17885000      47.06135000      21.53655000      -0.14006646
X        8.77415000      47.06135000      21.53655000      -0.14006646
W        6.38120000      44.66840000      22.33420000      -0.22145376
Ta       7.97650000      46.26370000      23.92950000      -0.40789490
X        7.17885000      45.46605000      23.13185000      -0.31624313
X        8.77415000      45.46605000      23.13185000      -0.31624313
X        7.17885000      47.06135000      23.13185000      -0.31624313
X        7.17885000      45.46605000      24.72715000      -0.47518702
X        8.77415000      47.06135000      23.13185000      -0.31624313
X        8.77415000      45.46605000      24.72715000      -0.47518702
X        7.17885000      47.06135000      24.72715000      -0.47518702
X        8.77415000      47.06135000      24.72715000      -0.47518702
W        6.38120000      44.66840000      25.52480000      -0.50000000
W        7.97650000      46.26370000      27.12010000      -0.40789490
X        7.17885000      45.46605000      26.32245000      -0.47518702
X        8.77415000      45.46605000      26.32245000      -0.47518702
X        7.17885000      47.06135000      26.32245000      -0.47518702
X        7.17885000      45.46605000      27.91775000      -0.31624313
X        8.77415000      47.06135000      26.32245000      -0.47518702
X        8.77415000      45.46605000      27.91775000      -0.31624313
X        7.17885000      47.06135000      27.91775000      -0.31624313
X        8.77415000      47.06135000      27.91775000      -0.31624313
W        6.38120000      44.66840000      28.71540000      -0.22145376
W        7.97650000      46.26370000      30.31070000      -0.08001555
X        7.17885000      45.46605000      29.51305000      -0.14006646
X        8.77415000      45.46605000      29.51305000      -0.14006646
X        7.17885000      47.06135000      29.51305000      -0.14006646
X        7.17885000      45.46605000      31.10835000      -0.04128609
X        8.77415000      47.06135000      29.51305000      -0.14006646
X        8.77415000      45.46605000      31.10835000      -0.04128609
X        7.17885000      47.06135000      31.10835000      -0.04128609
X        8.77415000      47.06135000      31.10835000      -0.04128609
W        6.38120000      44.66840000      31.90600000      -0.01924076
W        7.97650000      46.26370000      33.50130000      -0.00307912
X        7.17885000      45.46605000      32.70365000      -0.00809897
X        8.77415000      45.46605000      32.70365000      -0.00809897
X        7.17885000      47.06135000      32.70365000      -0.00809897
X        7.17885000      45.46605000      34.29895000      -0.00105733
X        8.77415000      47.06135000      32.70365000      -0.00809897
X        8.77415000      45.46605000      34.29895000      -0.00105733
X        7.17885000      47.06135000      34.29895000      -0.00105733
X        8.77415000      47.06135000      34.29895000      -0.00105733
W        6.38120000      44.66840000      35.09660000      -0.00032793
W        7.97650000      46.26370000      36.69190000      -0.00002324
X        7.17885000      45.46605000      35.89425000      -0.00009187
X        8.77415000      45.46605000      35.89425000      -0.00009187
X        7.17885000      47.06135000      35.89425000      -0.00009187
X        7.17885000      45.46605000      37.48955000      -0.00000531
X        8.77415000      47.06135000      35.89425000      -0.00009187
X        8.77415000      45.46605000      37.48955000      -0.00000531
X        7.17885000      47.06135000      37.48955000      -0.00000531
X        8.77415000      47.06135000      37.48955000      -0.00000531
W        6.38120000      44.66840000      38.28720000      -0.00000110
W        7.97650000      46.26370000      39.88250000      -0.00000003
X        7.17885000      45.46605000      39.08485000      -0.00000020
X        8.77415000      45.46605000      39.08485000      -0.00000020
X        7.17885000      47.06135000      39.08485000      -0.00000020
X        7.17885000      45.46605000      40.68015000      -0.00000001
X        8.77415000      47.06135000      39.08485000      -0.00000020
X        8.77415000      45.46605000      40.68015000      -0.00000001
X        7.17885000      47.06135000      40.68015000      -0.00000001
X        8.77415000      47.06135000      40.68015000      -0.00000001
W        6.38120000      44.66840000      41.47780000      -0.00000000
W        7.97650000      46.26370000      43.07310000      -0.00000000
X        7.17885000      45.46605000      42.27545000      -0.00000000
X        8.77415000      45.46605000      42.27545000      -0.00000000
X        7.17885000      47.06135000      42.27545000      -0.00000000
X        7.17885000      45.46605000      43.87075000      -0.00000000
X        8.77415000      47.06135000      42.27545000      -0.00000000
X        8.77415000      45.46605000      43.87075000      -0.00000000
X        7.17885000      47.06135000      43.87075000      -0.00000000
X        8.77415000      47.06135000      43.87075000      -0.00000000
Ta       6.38120000      44.66840000      44.66840000      -0.00000000
Ta       7.97650000      46.26370000      46.26370000      -0.00000000
X        7.17885000      45.46605000      45.46605000      -0.00000000
X        8.77415000      45.46605000      45.46605000      -0.00000000
X        7.17885000      47.06135000      45.46605000      -0.00000000
X        7.17885000      45.46605000      47.06135000      -0.00000000
X        8.77415000      47.06135000      45.46605000      -0.00000000
X        8.77415000      45.46605000      47.06135000      -0.00000000
X        7.17885000      47.06135000      47.06135000      -0.00000000
X        8.77415000      47.06135000      47.06135000      -0.00000000
W        6.38120000      44.66840000      47.85900000      -0.00000000
Ta       7.97650000      46.26370000      49.45430000      -0.00000000
X        7.17885000      45.46605000      48.65665000      -0.00000000
X        8.77415000      45.46605000      48.65665000      -0.00000000
X        7.17885000      47.06135000      48.65665000      -0.00000000
X        7.17885000      45.46605000      50.25195000      -0.00000000
X        8.77415000      47.06135000      48.65665000      -0.00000000
X        8.77415000      45.46605000      50.25195000      -0.00000000
X        7.17885000      47.06135000      50.25195000      -0.00000000
X        8.77415000      47.06135000      50.25195000      -0.00000000
Ta       6.38120000      47.85900000       0.00000000      -0.00000000
W        7.97650000      49.45430000       1.59530000      -0.00000000
X        7.17885000      48.65665000       0.79765000      -0.00000000
X        8.77415000      48.65665000       0.79765000      -0.00000000
X        7.17885000      50.25195000       0.79765000      -0.00000000
X        7.17885000      48.65665000       2.39295000      -0.00000000
X        8.77415000      50.25195000       0.79765000      -0.00000000
X        8.77415000      48.65665000       2.39295000      -0.00000000
X        7.17885000      50.25195000       2.39295000      -0.00000000
X        8.77415000      50.25195000       2.39295000      -0.00000000
W        6.38120000      47.85900000       3.19060000      -0.00000000
Ta       7.97650000      49.45430000       4.78590000      -0.00000000
X        7.17885000      48.65665000       3.98825000      -0.00000000
X        8.77415000      48.65665000       3.98825000      -0.00000000
X        7.17885000      50.25195000       3.98825000      -0.00000000
X        7.17885000      48.65665000       5.58355000      -0.00000000
X        8.77415000      50.25195000       3.98825000      -0.00000000
X        8.77415000      48.65665000       5.58355000      -0.00000000
X        7.17885000      50.25195000       5.58355000      -0.00000000
X        8.77415000      50.25195000       5.58355000      -0.00000000
W        6.38120000      47.85900000       6.38120000      -0.00000000
W        7.97650000      49.45430000       7.97650000      -0.00000000
X        7.17885000      48.65665000       7.17885000      -0.00000000
X        8.77415000      48.65665000       7.17885000      -0.00000000
X        7.17885000      50.25195000       7.17885000      -0.00000000
X        7.17885000      48.65665000       8.77415000      -0.00000000
X        8.77415000      50.25195000       7.17885000      -0.00000000
X        8.77415000      48.65665000       8.77415000      -0.00000000
X        7.17885000      50.25195000       8.77415000      -0.00000000
X        8.77415000      50.25195000       8.77415000      -0.00000000
W        6.38120000      47.85900000       9.57180000      -0.00000000
W        7.97650000      49.45430000      11.16710000      -0.00000003
X        7.17885000      48.65665000      10.36945000      -0.00000001
X        8.77415000      48.65665000      10.36945000      -0.00000001
X        7.17885000      50.25195000      10.36945000      -0.00000001
X        7.17885000      48.65665000      11.96475000      -0.00000020
X        8.77415000      50.25195000      10.36945000      -0.00000001
X        8.77415000      48.65665000      11.96475000      -0.00000020
X        7.17885000      50.25195000      11.96475000      -0.00000020
X        8.77415000      50.25195000      11.96475000      -0.00000020
W        6.38120000      47.85900000      12.76240000      -0.00000110
W        7.97650000      49.45430000      14.35770000      -0.00002324
X        7.17885000      48.65665000      13.56005000      -0.00000531
X        8.77415000      48.65665000      13.56005000      -0.00000531
X        7.17885000      50.25195000      13.56005000      -0.00000531
X        7.17885000      48.65665000      15.15535000      -0.00009187
X        8.77415000      50.25195000      13.56005000      -0.00000531
X        8.77415000      48.65665000      15.15535000      -0.00009187
X        7.17885000      50.25195000      15.15535000      -0.00009187
X        8.77415000      50.25195000      15.15535000      -0.00009187
W        6.38120000      47.85900000      15.95300000      -0.00032793
W        7.97650000      49.45430000      17.54830000      -0.00307912
X        7.17885000      48.65665000      16.75065000      -0.00105733
X        8.77415000      48.65665000      16.75065000      -0.00105733
X        7.17885000      50.25195000      16.75065000      -0.00105733
X        7.17885000      48.65665000      18.34595000      -0.00809897
X        8.77415000      50.25195000      16.75065000      -0.00105733
X        8.77415000      48.65665000      18.34595000      -0.00809897
X        7.17885000      50.25195000      18.34595000      -0.00809897
X        8.77415000      50.25195000      18.34595000      -0.00809897
W        6.38120000      47.85900000      19.14360000      -0.01924076
W        7.97650000      49.45430000      20.73890000      -0.08001555
X        7.17885000      48.65665000      19.94125000      -0.04128609
X        8.77415000      48.65665000      19.94125000      -0.04128609
X        7.17885000      50.25195000      19.94125000      -0.04128609
X        7.17885000      48.65665000      21.53655000      -0.14006646
X        8.77415000      50.25195000      19.94125000      -0.04128609
X        8.77415000      48.65665000      21.53655000      -0.14006646
X        7.17885000      50.25195000      21.53655000      -0.14006646
X        8.77415000      50.25195000      21.53655000      -0.14006646
W        6.38120000      47.85900000      22.33420000      -0.22145376
W        7.97650000      49.45430000      23.92950000      -0.40789490
X        7.17885000      48.65665000      23.13185000      -0.31624313
X        8.77415000      48.65665000      23.13185000      -0.31624313
X        7.17885000      50.25195000      23.13185000      -0.31624313
X        7.17885000      48.65665000      24.72715000      -0.47518702
X        8.77415000      50.25195000      23.13185000      -0.31624313
X        8.77415000      48.65665000      24.72715000      -0.47518702
X        7.17885000      50.25195000      24.72715000      -0.47518702
X        8.77415000      50.25195000      24.72715000      -0.47518702
W        6.38120000      47.85900000      25.52480000      -0.50000000
W        7.97650000      49.45430000      27.12010000      -0.40789490
X        7.17885000      48.65665000      26.32245000      -0.47518702
X        8.77415000      48.65665000      26.32245000      -0.47518702
X        7.17885000      50.25195000      26.32245000      -0.47518702
X        7.17885000      48.65665000      27.91775000      -0.31624313
X        8.77415000      50.25195000      26.32245000      -0.47518702
X        8.77415000      48.65665000      27.91775000      -0.31624313
X        7.17885000      50.25195000      27.91775000      -0.31624313
X        8.77415000      50.25195000      27.91775000      -0.31624313
Ta       6.38120000      47.85900000      28.71540000      -0.22145376
Ta       7.97650000      49.45430000      30.31070000      -0.08001555
X        7.17885000      48.65665000      29.51305000      -0.14006646
X        8.77415000      48.65665000      29.51305000      -0.14006646
X        7.17885000      50.25195000      29.51305000      -0.14006646
X        7.17885000      48.65665000      31.10835000      -0.04128609
X        8.77415000      50.25195000      29.51305000      -0.14006646
X        8.77415000      48.65665000      31.10835000      -0.04128609
X        7.17885000      50.25195000      31.10835000      -0.04128609
X        8.77415000      50.25195000      31.10835000      -0.04128609
W        6.38120000      47.85900000      31.90600000      -0.01924076
W        7.97650000      49.45430000      33.50130000      -0.00307912
X        7.17885000      48.65665000      32.70365000      -0.00809897
X        8.77415000      48.65665000      32.70365000      -0.00809897
X        7.17885000      50.25195000      32.70365000      -0.00809897
X        7.17885000      48.65665000      34.29895000      -0.00105733
X        8.77415000      50.25195000      32.70365000      -0.00809897
X        8.77415000      48.65665000      34.29895000      -0.00105733
X        7.17885000      50.25195000      34.29895000      -0.00105733
X        8.77415000      50.25195000      34.29895000      -0.00105733
Ta       6.38120000      47.85900000      35.09660000      -0.00032793
Ta       7.97650000      49.45430000      36.69190000      -0.00002324
X        7.17885000      48.65665000      35.89425000      -0.00009187
X        8.77415000      48.65665000      35.89425000      -0.00009187
X        7.17885000      50.25195000      35.89425000      -0.00009187
X        7.17885000      48.65665000      37.48955000      -0.00000531
X        8.77415000      50.25195000      35.89425000      -0.00009187
X        8.77415000      48.65665000      37.48955000      -0.00000531
X        7.17885000      50.25195000      37.48955000      -0.00000531
X        8.77415000      50.25195000      37.48955000      -0.00000531
W        6.38120000      47.85900000      38.28720000      -0.00000110
Ta       7.97650000      49.45430000      39.88250000      -0.00000003
X        7.17885000      48.65665000      39.08485000      -0.00000020
X        8.77415000      48.65665000      39.08485000      -0.00000020
X        7.17885000      50.25195000      39.08485000      -0.00000020
X        7.17885000      48.65665000      40.68015000      -0.00000001
X        8.77415000      50.25195000      39.08485000      -0.00000020
X        8.77415000      48.65665000      40.68015000      -0.00000001
X        7.17885000      50.25195000      40.68015000      -0.00000001
X        8.77415000      50.25195000      40.68015000      -0.00000001
W        6.38120000      47.85900000      41.47780000      -0.00000000
W        7.97650000      49.45430000      43.07310000      -0.00000000
X        7.17885000      48.65665000      42.27545000      -0.00000000
X        8.77415000      48.65665000      42.27545000      -0.00000000
X        7.17885000      50.25195000      42.27545000      -0.00000000
X        7.17885000      48.65665000      43.87075000      -0.00000000
X        8.77415000      50.25195000      42.27545000      -0.00000000
X        8.77415000      48.65665000      43.87075000      -0.00000000
X        7.17885000      50.25195000      43.87075000      -0.00000000
X        8.77415000      50.25195000      43.87075000      -0.00000000
W        6.38120000      47.85900000      44.66840000      -0.00000000
W        7.97650000      49.45430000      46.26370000      -0.00000000
X        7.17885000      48.65665000      45.46605000      -0.00000000
X        8.77415000      48.65665000      45.46605000      -0.00000000
X        7.17885000      50.25195000      45.46605000      -0.00000000
X        7.17885000      48.65665000      47.06135000      -0.00000000
X        8.77415000      50.25195000      45.46605000      -0.00000000
X        8.77415000      48.65665000      47.06135000      -0.00000000
X        7.17885000      50.25195000      47.06135000      -0.00000000
X        8.77415000      50.25195000      47.06135000      -0.00000000
W        6.38120000      47.85900000      47.85900000      -0.00000000
W        7.97650000      49.45430000      49.45430000      -0.00000000
X        7.17885000      48.65665000      48.65665000      -0.00000000
X        8.77415000      48.65665000      48.65665000      -0.00000000
X        7.17885000      50.25195000      48.65665000      -0.00000000
X        7.17885000      48.65665000      50.25195000      -0.00000000
X        8.77415000      50.25195000      48.65665000      -0.00000000
X        8.77415000      48.65665000      50.25195000      -0.00000000
X        7.17885000      50.25195000      50.25195000      -0.00000000
X        8.77415000      50.25195000      50.25195000      -0.00000000
